* #variable= 64 #constraint= 64 #equal= 0 intsize= 2
* K(n,r=1,mu) optimisation instance: n=6 mu=2, minimise |C|
* x{v+1} = 1  iff  word v in {0..63} is a codeword
* coverage: sum_{c in B(v)} x_c >= 2 for every v; B(v) = ball of radius 1
* objective: minimise sum_v x_v = |C|
min: +1 x1 +1 x2 +1 x3 +1 x4 +1 x5 +1 x6 +1 x7 +1 x8 +1 x9 +1 x10 +1 x11 +1 x12 +1 x13 +1 x14 +1 x15 +1 x16 +1 x17 +1 x18 +1 x19 +1 x20 +1 x21 +1 x22 +1 x23 +1 x24 +1 x25 +1 x26 +1 x27 +1 x28 +1 x29 +1 x30 +1 x31 +1 x32 +1 x33 +1 x34 +1 x35 +1 x36 +1 x37 +1 x38 +1 x39 +1 x40 +1 x41 +1 x42 +1 x43 +1 x44 +1 x45 +1 x46 +1 x47 +1 x48 +1 x49 +1 x50 +1 x51 +1 x52 +1 x53 +1 x54 +1 x55 +1 x56 +1 x57 +1 x58 +1 x59 +1 x60 +1 x61 +1 x62 +1 x63 +1 x64 ;
+1 x1 +1 x2 +1 x3 +1 x5 +1 x9 +1 x17 +1 x33 >= 2 ;
+1 x1 +1 x2 +1 x4 +1 x6 +1 x10 +1 x18 +1 x34 >= 2 ;
+1 x1 +1 x3 +1 x4 +1 x7 +1 x11 +1 x19 +1 x35 >= 2 ;
+1 x2 +1 x3 +1 x4 +1 x8 +1 x12 +1 x20 +1 x36 >= 2 ;
+1 x1 +1 x5 +1 x6 +1 x7 +1 x13 +1 x21 +1 x37 >= 2 ;
+1 x2 +1 x5 +1 x6 +1 x8 +1 x14 +1 x22 +1 x38 >= 2 ;
+1 x3 +1 x5 +1 x7 +1 x8 +1 x15 +1 x23 +1 x39 >= 2 ;
+1 x4 +1 x6 +1 x7 +1 x8 +1 x16 +1 x24 +1 x40 >= 2 ;
+1 x1 +1 x9 +1 x10 +1 x11 +1 x13 +1 x25 +1 x41 >= 2 ;
+1 x2 +1 x9 +1 x10 +1 x12 +1 x14 +1 x26 +1 x42 >= 2 ;
+1 x3 +1 x9 +1 x11 +1 x12 +1 x15 +1 x27 +1 x43 >= 2 ;
+1 x4 +1 x10 +1 x11 +1 x12 +1 x16 +1 x28 +1 x44 >= 2 ;
+1 x5 +1 x9 +1 x13 +1 x14 +1 x15 +1 x29 +1 x45 >= 2 ;
+1 x6 +1 x10 +1 x13 +1 x14 +1 x16 +1 x30 +1 x46 >= 2 ;
+1 x7 +1 x11 +1 x13 +1 x15 +1 x16 +1 x31 +1 x47 >= 2 ;
+1 x8 +1 x12 +1 x14 +1 x15 +1 x16 +1 x32 +1 x48 >= 2 ;
+1 x1 +1 x17 +1 x18 +1 x19 +1 x21 +1 x25 +1 x49 >= 2 ;
+1 x2 +1 x17 +1 x18 +1 x20 +1 x22 +1 x26 +1 x50 >= 2 ;
+1 x3 +1 x17 +1 x19 +1 x20 +1 x23 +1 x27 +1 x51 >= 2 ;
+1 x4 +1 x18 +1 x19 +1 x20 +1 x24 +1 x28 +1 x52 >= 2 ;
+1 x5 +1 x17 +1 x21 +1 x22 +1 x23 +1 x29 +1 x53 >= 2 ;
+1 x6 +1 x18 +1 x21 +1 x22 +1 x24 +1 x30 +1 x54 >= 2 ;
+1 x7 +1 x19 +1 x21 +1 x23 +1 x24 +1 x31 +1 x55 >= 2 ;
+1 x8 +1 x20 +1 x22 +1 x23 +1 x24 +1 x32 +1 x56 >= 2 ;
+1 x9 +1 x17 +1 x25 +1 x26 +1 x27 +1 x29 +1 x57 >= 2 ;
+1 x10 +1 x18 +1 x25 +1 x26 +1 x28 +1 x30 +1 x58 >= 2 ;
+1 x11 +1 x19 +1 x25 +1 x27 +1 x28 +1 x31 +1 x59 >= 2 ;
+1 x12 +1 x20 +1 x26 +1 x27 +1 x28 +1 x32 +1 x60 >= 2 ;
+1 x13 +1 x21 +1 x25 +1 x29 +1 x30 +1 x31 +1 x61 >= 2 ;
+1 x14 +1 x22 +1 x26 +1 x29 +1 x30 +1 x32 +1 x62 >= 2 ;
+1 x15 +1 x23 +1 x27 +1 x29 +1 x31 +1 x32 +1 x63 >= 2 ;
+1 x16 +1 x24 +1 x28 +1 x30 +1 x31 +1 x32 +1 x64 >= 2 ;
+1 x1 +1 x33 +1 x34 +1 x35 +1 x37 +1 x41 +1 x49 >= 2 ;
+1 x2 +1 x33 +1 x34 +1 x36 +1 x38 +1 x42 +1 x50 >= 2 ;
+1 x3 +1 x33 +1 x35 +1 x36 +1 x39 +1 x43 +1 x51 >= 2 ;
+1 x4 +1 x34 +1 x35 +1 x36 +1 x40 +1 x44 +1 x52 >= 2 ;
+1 x5 +1 x33 +1 x37 +1 x38 +1 x39 +1 x45 +1 x53 >= 2 ;
+1 x6 +1 x34 +1 x37 +1 x38 +1 x40 +1 x46 +1 x54 >= 2 ;
+1 x7 +1 x35 +1 x37 +1 x39 +1 x40 +1 x47 +1 x55 >= 2 ;
+1 x8 +1 x36 +1 x38 +1 x39 +1 x40 +1 x48 +1 x56 >= 2 ;
+1 x9 +1 x33 +1 x41 +1 x42 +1 x43 +1 x45 +1 x57 >= 2 ;
+1 x10 +1 x34 +1 x41 +1 x42 +1 x44 +1 x46 +1 x58 >= 2 ;
+1 x11 +1 x35 +1 x41 +1 x43 +1 x44 +1 x47 +1 x59 >= 2 ;
+1 x12 +1 x36 +1 x42 +1 x43 +1 x44 +1 x48 +1 x60 >= 2 ;
+1 x13 +1 x37 +1 x41 +1 x45 +1 x46 +1 x47 +1 x61 >= 2 ;
+1 x14 +1 x38 +1 x42 +1 x45 +1 x46 +1 x48 +1 x62 >= 2 ;
+1 x15 +1 x39 +1 x43 +1 x45 +1 x47 +1 x48 +1 x63 >= 2 ;
+1 x16 +1 x40 +1 x44 +1 x46 +1 x47 +1 x48 +1 x64 >= 2 ;
+1 x17 +1 x33 +1 x49 +1 x50 +1 x51 +1 x53 +1 x57 >= 2 ;
+1 x18 +1 x34 +1 x49 +1 x50 +1 x52 +1 x54 +1 x58 >= 2 ;
+1 x19 +1 x35 +1 x49 +1 x51 +1 x52 +1 x55 +1 x59 >= 2 ;
+1 x20 +1 x36 +1 x50 +1 x51 +1 x52 +1 x56 +1 x60 >= 2 ;
+1 x21 +1 x37 +1 x49 +1 x53 +1 x54 +1 x55 +1 x61 >= 2 ;
+1 x22 +1 x38 +1 x50 +1 x53 +1 x54 +1 x56 +1 x62 >= 2 ;
+1 x23 +1 x39 +1 x51 +1 x53 +1 x55 +1 x56 +1 x63 >= 2 ;
+1 x24 +1 x40 +1 x52 +1 x54 +1 x55 +1 x56 +1 x64 >= 2 ;
+1 x25 +1 x41 +1 x49 +1 x57 +1 x58 +1 x59 +1 x61 >= 2 ;
+1 x26 +1 x42 +1 x50 +1 x57 +1 x58 +1 x60 +1 x62 >= 2 ;
+1 x27 +1 x43 +1 x51 +1 x57 +1 x59 +1 x60 +1 x63 >= 2 ;
+1 x28 +1 x44 +1 x52 +1 x58 +1 x59 +1 x60 +1 x64 >= 2 ;
+1 x29 +1 x45 +1 x53 +1 x57 +1 x61 +1 x62 +1 x63 >= 2 ;
+1 x30 +1 x46 +1 x54 +1 x58 +1 x61 +1 x62 +1 x64 >= 2 ;
+1 x31 +1 x47 +1 x55 +1 x59 +1 x61 +1 x63 +1 x64 >= 2 ;
+1 x32 +1 x48 +1 x56 +1 x60 +1 x62 +1 x63 +1 x64 >= 2 ;
