* #variable= 40 #constraint= 257 #equal= 0 intsize= 3
* prime-order-symmetric orbit-ILP for class p7_a1 (order 7, 40 orbits)
* x{i+1} = 1  iff  orbit O_i (0-indexed) is included in the invariant code
* coverage: sum_i cov(v,O_i) y_i >= 2 for every vertex v in F_2^8 (256 rows)
* cardinality: sum_i |O_i| y_i <= 63, in >= form
+1 x1 +7 x2 +1 x21 >= 2 ;
+1 x1 +1 x2 +2 x3 +2 x4 +2 x6 +1 x22 >= 2 ;
+1 x1 +1 x2 +2 x3 +2 x4 +2 x6 +1 x22 >= 2 ;
+2 x2 +1 x3 +2 x5 +1 x7 +1 x8 +1 x10 +1 x23 >= 2 ;
+1 x1 +1 x2 +2 x3 +2 x4 +2 x6 +1 x22 >= 2 ;
+2 x2 +1 x4 +1 x5 +1 x7 +1 x8 +2 x11 +1 x24 >= 2 ;
+2 x2 +1 x3 +2 x5 +1 x7 +1 x8 +1 x10 +1 x23 >= 2 ;
+2 x3 +1 x4 +1 x5 +2 x9 +1 x12 +1 x14 +1 x25 >= 2 ;
+1 x1 +1 x2 +2 x3 +2 x4 +2 x6 +1 x22 >= 2 ;
+2 x2 +1 x6 +1 x7 +1 x8 +2 x10 +1 x11 +1 x26 >= 2 ;
+2 x2 +1 x4 +1 x5 +1 x7 +1 x8 +2 x11 +1 x24 >= 2 ;
+1 x3 +1 x4 +1 x6 +1 x7 +1 x9 +1 x12 +1 x13 +1 x16 +1 x27 >= 2 ;
+2 x2 +1 x3 +2 x5 +1 x7 +1 x8 +1 x10 +1 x23 >= 2 ;
+1 x3 +1 x4 +1 x6 +1 x8 +1 x9 +1 x13 +1 x14 +1 x16 +1 x28 >= 2 ;
+2 x3 +1 x4 +1 x5 +2 x9 +1 x12 +1 x14 +1 x25 >= 2 ;
+2 x5 +1 x7 +1 x8 +1 x9 +2 x15 +1 x17 +1 x29 >= 2 ;
+1 x1 +1 x2 +2 x3 +2 x4 +2 x6 +1 x22 >= 2 ;
+2 x2 +1 x6 +1 x7 +1 x8 +2 x10 +1 x11 +1 x26 >= 2 ;
+2 x2 +1 x6 +1 x7 +1 x8 +2 x10 +1 x11 +1 x26 >= 2 ;
+1 x3 +2 x6 +1 x10 +1 x12 +2 x13 +1 x14 +1 x30 >= 2 ;
+2 x2 +1 x4 +1 x5 +1 x7 +1 x8 +2 x11 +1 x24 >= 2 ;
+2 x4 +1 x6 +1 x11 +1 x12 +1 x14 +2 x16 +1 x31 >= 2 ;
+1 x3 +1 x4 +1 x6 +1 x7 +1 x9 +1 x12 +1 x13 +1 x16 +1 x27 >= 2 ;
+1 x5 +1 x7 +1 x10 +1 x11 +1 x12 +1 x15 +1 x17 +1 x18 +1 x32 >= 2 ;
+2 x2 +1 x3 +2 x5 +1 x7 +1 x8 +1 x10 +1 x23 >= 2 ;
+1 x3 +2 x6 +1 x10 +1 x12 +2 x13 +1 x14 +1 x30 >= 2 ;
+1 x3 +1 x4 +1 x6 +1 x8 +1 x9 +1 x13 +1 x14 +1 x16 +1 x28 >= 2 ;
+1 x7 +1 x8 +2 x10 +1 x13 +1 x15 +2 x18 +1 x33 >= 2 ;
+2 x3 +1 x4 +1 x5 +2 x9 +1 x12 +1 x14 +1 x25 >= 2 ;
+1 x5 +1 x8 +1 x10 +1 x11 +1 x14 +1 x15 +1 x17 +1 x18 +1 x34 >= 2 ;
+2 x5 +1 x7 +1 x8 +1 x9 +2 x15 +1 x17 +1 x29 >= 2 ;
+2 x9 +1 x12 +1 x13 +1 x14 +1 x15 +2 x19 +1 x35 >= 2 ;
+1 x1 +1 x2 +2 x3 +2 x4 +2 x6 +1 x22 >= 2 ;
+2 x2 +1 x4 +1 x5 +1 x7 +1 x8 +2 x11 +1 x24 >= 2 ;
+2 x2 +1 x6 +1 x7 +1 x8 +2 x10 +1 x11 +1 x26 >= 2 ;
+1 x3 +1 x4 +1 x6 +1 x8 +1 x9 +1 x13 +1 x14 +1 x16 +1 x28 >= 2 ;
+2 x2 +1 x6 +1 x7 +1 x8 +2 x10 +1 x11 +1 x26 >= 2 ;
+2 x4 +1 x6 +1 x11 +1 x12 +1 x14 +2 x16 +1 x31 >= 2 ;
+1 x3 +2 x6 +1 x10 +1 x12 +2 x13 +1 x14 +1 x30 >= 2 ;
+1 x5 +1 x8 +1 x10 +1 x11 +1 x14 +1 x15 +1 x17 +1 x18 +1 x34 >= 2 ;
+2 x2 +1 x4 +1 x5 +1 x7 +1 x8 +2 x11 +1 x24 >= 2 ;
+2 x4 +1 x6 +1 x11 +1 x12 +1 x14 +2 x16 +1 x31 >= 2 ;
+2 x4 +1 x6 +1 x11 +1 x12 +1 x14 +2 x16 +1 x31 >= 2 ;
+1 x7 +1 x8 +2 x11 +1 x16 +2 x17 +1 x18 +1 x36 >= 2 ;
+1 x3 +1 x4 +1 x6 +1 x7 +1 x9 +1 x12 +1 x13 +1 x16 +1 x27 >= 2 ;
+1 x7 +1 x8 +2 x11 +1 x16 +2 x17 +1 x18 +1 x36 >= 2 ;
+1 x5 +1 x7 +1 x10 +1 x11 +1 x12 +1 x15 +1 x17 +1 x18 +1 x32 >= 2 ;
+1 x9 +1 x12 +1 x14 +2 x16 +1 x17 +2 x19 +1 x37 >= 2 ;
+2 x2 +1 x3 +2 x5 +1 x7 +1 x8 +1 x10 +1 x23 >= 2 ;
+1 x3 +1 x4 +1 x6 +1 x7 +1 x9 +1 x12 +1 x13 +1 x16 +1 x27 >= 2 ;
+1 x3 +2 x6 +1 x10 +1 x12 +2 x13 +1 x14 +1 x30 >= 2 ;
+1 x7 +1 x8 +2 x10 +1 x13 +1 x15 +2 x18 +1 x33 >= 2 ;
+1 x3 +1 x4 +1 x6 +1 x8 +1 x9 +1 x13 +1 x14 +1 x16 +1 x28 >= 2 ;
+1 x7 +1 x8 +2 x11 +1 x16 +2 x17 +1 x18 +1 x36 >= 2 ;
+1 x7 +1 x8 +2 x10 +1 x13 +1 x15 +2 x18 +1 x33 >= 2 ;
+1 x12 +2 x13 +1 x14 +1 x16 +1 x18 +2 x19 +1 x38 >= 2 ;
+2 x3 +1 x4 +1 x5 +2 x9 +1 x12 +1 x14 +1 x25 >= 2 ;
+1 x5 +1 x7 +1 x10 +1 x11 +1 x12 +1 x15 +1 x17 +1 x18 +1 x32 >= 2 ;
+1 x5 +1 x8 +1 x10 +1 x11 +1 x14 +1 x15 +1 x17 +1 x18 +1 x34 >= 2 ;
+1 x12 +2 x13 +1 x14 +1 x16 +1 x18 +2 x19 +1 x38 >= 2 ;
+2 x5 +1 x7 +1 x8 +1 x9 +2 x15 +1 x17 +1 x29 >= 2 ;
+1 x9 +1 x12 +1 x14 +2 x16 +1 x17 +2 x19 +1 x37 >= 2 ;
+2 x9 +1 x12 +1 x13 +1 x14 +1 x15 +2 x19 +1 x35 >= 2 ;
+2 x15 +2 x17 +2 x18 +1 x19 +1 x20 +1 x39 >= 2 ;
+1 x1 +1 x2 +2 x3 +2 x4 +2 x6 +1 x22 >= 2 ;
+2 x2 +1 x3 +2 x5 +1 x7 +1 x8 +1 x10 +1 x23 >= 2 ;
+2 x2 +1 x4 +1 x5 +1 x7 +1 x8 +2 x11 +1 x24 >= 2 ;
+2 x3 +1 x4 +1 x5 +2 x9 +1 x12 +1 x14 +1 x25 >= 2 ;
+2 x2 +1 x6 +1 x7 +1 x8 +2 x10 +1 x11 +1 x26 >= 2 ;
+1 x3 +1 x4 +1 x6 +1 x7 +1 x9 +1 x12 +1 x13 +1 x16 +1 x27 >= 2 ;
+1 x3 +1 x4 +1 x6 +1 x8 +1 x9 +1 x13 +1 x14 +1 x16 +1 x28 >= 2 ;
+2 x5 +1 x7 +1 x8 +1 x9 +2 x15 +1 x17 +1 x29 >= 2 ;
+2 x2 +1 x6 +1 x7 +1 x8 +2 x10 +1 x11 +1 x26 >= 2 ;
+1 x3 +2 x6 +1 x10 +1 x12 +2 x13 +1 x14 +1 x30 >= 2 ;
+2 x4 +1 x6 +1 x11 +1 x12 +1 x14 +2 x16 +1 x31 >= 2 ;
+1 x5 +1 x7 +1 x10 +1 x11 +1 x12 +1 x15 +1 x17 +1 x18 +1 x32 >= 2 ;
+1 x3 +2 x6 +1 x10 +1 x12 +2 x13 +1 x14 +1 x30 >= 2 ;
+1 x7 +1 x8 +2 x10 +1 x13 +1 x15 +2 x18 +1 x33 >= 2 ;
+1 x5 +1 x8 +1 x10 +1 x11 +1 x14 +1 x15 +1 x17 +1 x18 +1 x34 >= 2 ;
+2 x9 +1 x12 +1 x13 +1 x14 +1 x15 +2 x19 +1 x35 >= 2 ;
+2 x2 +1 x4 +1 x5 +1 x7 +1 x8 +2 x11 +1 x24 >= 2 ;
+1 x3 +1 x4 +1 x6 +1 x8 +1 x9 +1 x13 +1 x14 +1 x16 +1 x28 >= 2 ;
+2 x4 +1 x6 +1 x11 +1 x12 +1 x14 +2 x16 +1 x31 >= 2 ;
+1 x5 +1 x8 +1 x10 +1 x11 +1 x14 +1 x15 +1 x17 +1 x18 +1 x34 >= 2 ;
+2 x4 +1 x6 +1 x11 +1 x12 +1 x14 +2 x16 +1 x31 >= 2 ;
+1 x7 +1 x8 +2 x11 +1 x16 +2 x17 +1 x18 +1 x36 >= 2 ;
+1 x7 +1 x8 +2 x11 +1 x16 +2 x17 +1 x18 +1 x36 >= 2 ;
+1 x9 +1 x12 +1 x14 +2 x16 +1 x17 +2 x19 +1 x37 >= 2 ;
+1 x3 +1 x4 +1 x6 +1 x7 +1 x9 +1 x12 +1 x13 +1 x16 +1 x27 >= 2 ;
+1 x7 +1 x8 +2 x10 +1 x13 +1 x15 +2 x18 +1 x33 >= 2 ;
+1 x7 +1 x8 +2 x11 +1 x16 +2 x17 +1 x18 +1 x36 >= 2 ;
+1 x12 +2 x13 +1 x14 +1 x16 +1 x18 +2 x19 +1 x38 >= 2 ;
+1 x5 +1 x7 +1 x10 +1 x11 +1 x12 +1 x15 +1 x17 +1 x18 +1 x32 >= 2 ;
+1 x12 +2 x13 +1 x14 +1 x16 +1 x18 +2 x19 +1 x38 >= 2 ;
+1 x9 +1 x12 +1 x14 +2 x16 +1 x17 +2 x19 +1 x37 >= 2 ;
+2 x15 +2 x17 +2 x18 +1 x19 +1 x20 +1 x39 >= 2 ;
+2 x2 +1 x3 +2 x5 +1 x7 +1 x8 +1 x10 +1 x23 >= 2 ;
+2 x3 +1 x4 +1 x5 +2 x9 +1 x12 +1 x14 +1 x25 >= 2 ;
+1 x3 +1 x4 +1 x6 +1 x7 +1 x9 +1 x12 +1 x13 +1 x16 +1 x27 >= 2 ;
+2 x5 +1 x7 +1 x8 +1 x9 +2 x15 +1 x17 +1 x29 >= 2 ;
+1 x3 +2 x6 +1 x10 +1 x12 +2 x13 +1 x14 +1 x30 >= 2 ;
+1 x5 +1 x7 +1 x10 +1 x11 +1 x12 +1 x15 +1 x17 +1 x18 +1 x32 >= 2 ;
+1 x7 +1 x8 +2 x10 +1 x13 +1 x15 +2 x18 +1 x33 >= 2 ;
+2 x9 +1 x12 +1 x13 +1 x14 +1 x15 +2 x19 +1 x35 >= 2 ;
+1 x3 +1 x4 +1 x6 +1 x8 +1 x9 +1 x13 +1 x14 +1 x16 +1 x28 >= 2 ;
+1 x5 +1 x8 +1 x10 +1 x11 +1 x14 +1 x15 +1 x17 +1 x18 +1 x34 >= 2 ;
+1 x7 +1 x8 +2 x11 +1 x16 +2 x17 +1 x18 +1 x36 >= 2 ;
+1 x9 +1 x12 +1 x14 +2 x16 +1 x17 +2 x19 +1 x37 >= 2 ;
+1 x7 +1 x8 +2 x10 +1 x13 +1 x15 +2 x18 +1 x33 >= 2 ;
+1 x12 +2 x13 +1 x14 +1 x16 +1 x18 +2 x19 +1 x38 >= 2 ;
+1 x12 +2 x13 +1 x14 +1 x16 +1 x18 +2 x19 +1 x38 >= 2 ;
+2 x15 +2 x17 +2 x18 +1 x19 +1 x20 +1 x39 >= 2 ;
+2 x3 +1 x4 +1 x5 +2 x9 +1 x12 +1 x14 +1 x25 >= 2 ;
+2 x5 +1 x7 +1 x8 +1 x9 +2 x15 +1 x17 +1 x29 >= 2 ;
+1 x5 +1 x7 +1 x10 +1 x11 +1 x12 +1 x15 +1 x17 +1 x18 +1 x32 >= 2 ;
+2 x9 +1 x12 +1 x13 +1 x14 +1 x15 +2 x19 +1 x35 >= 2 ;
+1 x5 +1 x8 +1 x10 +1 x11 +1 x14 +1 x15 +1 x17 +1 x18 +1 x34 >= 2 ;
+1 x9 +1 x12 +1 x14 +2 x16 +1 x17 +2 x19 +1 x37 >= 2 ;
+1 x12 +2 x13 +1 x14 +1 x16 +1 x18 +2 x19 +1 x38 >= 2 ;
+2 x15 +2 x17 +2 x18 +1 x19 +1 x20 +1 x39 >= 2 ;
+2 x5 +1 x7 +1 x8 +1 x9 +2 x15 +1 x17 +1 x29 >= 2 ;
+2 x9 +1 x12 +1 x13 +1 x14 +1 x15 +2 x19 +1 x35 >= 2 ;
+1 x9 +1 x12 +1 x14 +2 x16 +1 x17 +2 x19 +1 x37 >= 2 ;
+2 x15 +2 x17 +2 x18 +1 x19 +1 x20 +1 x39 >= 2 ;
+2 x9 +1 x12 +1 x13 +1 x14 +1 x15 +2 x19 +1 x35 >= 2 ;
+2 x15 +2 x17 +2 x18 +1 x19 +1 x20 +1 x39 >= 2 ;
+2 x15 +2 x17 +2 x18 +1 x19 +1 x20 +1 x39 >= 2 ;
+7 x19 +1 x20 +1 x40 >= 2 ;
+1 x1 +1 x21 +7 x22 >= 2 ;
+1 x2 +1 x21 +1 x22 +2 x23 +2 x24 +2 x26 >= 2 ;
+1 x2 +1 x21 +1 x22 +2 x23 +2 x24 +2 x26 >= 2 ;
+1 x3 +2 x22 +1 x23 +2 x25 +1 x27 +1 x28 +1 x30 >= 2 ;
+1 x2 +1 x21 +1 x22 +2 x23 +2 x24 +2 x26 >= 2 ;
+1 x4 +2 x22 +1 x24 +1 x25 +1 x27 +1 x28 +2 x31 >= 2 ;
+1 x3 +2 x22 +1 x23 +2 x25 +1 x27 +1 x28 +1 x30 >= 2 ;
+1 x5 +2 x23 +1 x24 +1 x25 +2 x29 +1 x32 +1 x34 >= 2 ;
+1 x2 +1 x21 +1 x22 +2 x23 +2 x24 +2 x26 >= 2 ;
+1 x6 +2 x22 +1 x26 +1 x27 +1 x28 +2 x30 +1 x31 >= 2 ;
+1 x4 +2 x22 +1 x24 +1 x25 +1 x27 +1 x28 +2 x31 >= 2 ;
+1 x7 +1 x23 +1 x24 +1 x26 +1 x27 +1 x29 +1 x32 +1 x33 +1 x36 >= 2 ;
+1 x3 +2 x22 +1 x23 +2 x25 +1 x27 +1 x28 +1 x30 >= 2 ;
+1 x8 +1 x23 +1 x24 +1 x26 +1 x28 +1 x29 +1 x33 +1 x34 +1 x36 >= 2 ;
+1 x5 +2 x23 +1 x24 +1 x25 +2 x29 +1 x32 +1 x34 >= 2 ;
+1 x9 +2 x25 +1 x27 +1 x28 +1 x29 +2 x35 +1 x37 >= 2 ;
+1 x2 +1 x21 +1 x22 +2 x23 +2 x24 +2 x26 >= 2 ;
+1 x6 +2 x22 +1 x26 +1 x27 +1 x28 +2 x30 +1 x31 >= 2 ;
+1 x6 +2 x22 +1 x26 +1 x27 +1 x28 +2 x30 +1 x31 >= 2 ;
+1 x10 +1 x23 +2 x26 +1 x30 +1 x32 +2 x33 +1 x34 >= 2 ;
+1 x4 +2 x22 +1 x24 +1 x25 +1 x27 +1 x28 +2 x31 >= 2 ;
+1 x11 +2 x24 +1 x26 +1 x31 +1 x32 +1 x34 +2 x36 >= 2 ;
+1 x7 +1 x23 +1 x24 +1 x26 +1 x27 +1 x29 +1 x32 +1 x33 +1 x36 >= 2 ;
+1 x12 +1 x25 +1 x27 +1 x30 +1 x31 +1 x32 +1 x35 +1 x37 +1 x38 >= 2 ;
+1 x3 +2 x22 +1 x23 +2 x25 +1 x27 +1 x28 +1 x30 >= 2 ;
+1 x10 +1 x23 +2 x26 +1 x30 +1 x32 +2 x33 +1 x34 >= 2 ;
+1 x8 +1 x23 +1 x24 +1 x26 +1 x28 +1 x29 +1 x33 +1 x34 +1 x36 >= 2 ;
+1 x13 +1 x27 +1 x28 +2 x30 +1 x33 +1 x35 +2 x38 >= 2 ;
+1 x5 +2 x23 +1 x24 +1 x25 +2 x29 +1 x32 +1 x34 >= 2 ;
+1 x14 +1 x25 +1 x28 +1 x30 +1 x31 +1 x34 +1 x35 +1 x37 +1 x38 >= 2 ;
+1 x9 +2 x25 +1 x27 +1 x28 +1 x29 +2 x35 +1 x37 >= 2 ;
+1 x15 +2 x29 +1 x32 +1 x33 +1 x34 +1 x35 +2 x39 >= 2 ;
+1 x2 +1 x21 +1 x22 +2 x23 +2 x24 +2 x26 >= 2 ;
+1 x4 +2 x22 +1 x24 +1 x25 +1 x27 +1 x28 +2 x31 >= 2 ;
+1 x6 +2 x22 +1 x26 +1 x27 +1 x28 +2 x30 +1 x31 >= 2 ;
+1 x8 +1 x23 +1 x24 +1 x26 +1 x28 +1 x29 +1 x33 +1 x34 +1 x36 >= 2 ;
+1 x6 +2 x22 +1 x26 +1 x27 +1 x28 +2 x30 +1 x31 >= 2 ;
+1 x11 +2 x24 +1 x26 +1 x31 +1 x32 +1 x34 +2 x36 >= 2 ;
+1 x10 +1 x23 +2 x26 +1 x30 +1 x32 +2 x33 +1 x34 >= 2 ;
+1 x14 +1 x25 +1 x28 +1 x30 +1 x31 +1 x34 +1 x35 +1 x37 +1 x38 >= 2 ;
+1 x4 +2 x22 +1 x24 +1 x25 +1 x27 +1 x28 +2 x31 >= 2 ;
+1 x11 +2 x24 +1 x26 +1 x31 +1 x32 +1 x34 +2 x36 >= 2 ;
+1 x11 +2 x24 +1 x26 +1 x31 +1 x32 +1 x34 +2 x36 >= 2 ;
+1 x16 +1 x27 +1 x28 +2 x31 +1 x36 +2 x37 +1 x38 >= 2 ;
+1 x7 +1 x23 +1 x24 +1 x26 +1 x27 +1 x29 +1 x32 +1 x33 +1 x36 >= 2 ;
+1 x16 +1 x27 +1 x28 +2 x31 +1 x36 +2 x37 +1 x38 >= 2 ;
+1 x12 +1 x25 +1 x27 +1 x30 +1 x31 +1 x32 +1 x35 +1 x37 +1 x38 >= 2 ;
+1 x17 +1 x29 +1 x32 +1 x34 +2 x36 +1 x37 +2 x39 >= 2 ;
+1 x3 +2 x22 +1 x23 +2 x25 +1 x27 +1 x28 +1 x30 >= 2 ;
+1 x7 +1 x23 +1 x24 +1 x26 +1 x27 +1 x29 +1 x32 +1 x33 +1 x36 >= 2 ;
+1 x10 +1 x23 +2 x26 +1 x30 +1 x32 +2 x33 +1 x34 >= 2 ;
+1 x13 +1 x27 +1 x28 +2 x30 +1 x33 +1 x35 +2 x38 >= 2 ;
+1 x8 +1 x23 +1 x24 +1 x26 +1 x28 +1 x29 +1 x33 +1 x34 +1 x36 >= 2 ;
+1 x16 +1 x27 +1 x28 +2 x31 +1 x36 +2 x37 +1 x38 >= 2 ;
+1 x13 +1 x27 +1 x28 +2 x30 +1 x33 +1 x35 +2 x38 >= 2 ;
+1 x18 +1 x32 +2 x33 +1 x34 +1 x36 +1 x38 +2 x39 >= 2 ;
+1 x5 +2 x23 +1 x24 +1 x25 +2 x29 +1 x32 +1 x34 >= 2 ;
+1 x12 +1 x25 +1 x27 +1 x30 +1 x31 +1 x32 +1 x35 +1 x37 +1 x38 >= 2 ;
+1 x14 +1 x25 +1 x28 +1 x30 +1 x31 +1 x34 +1 x35 +1 x37 +1 x38 >= 2 ;
+1 x18 +1 x32 +2 x33 +1 x34 +1 x36 +1 x38 +2 x39 >= 2 ;
+1 x9 +2 x25 +1 x27 +1 x28 +1 x29 +2 x35 +1 x37 >= 2 ;
+1 x17 +1 x29 +1 x32 +1 x34 +2 x36 +1 x37 +2 x39 >= 2 ;
+1 x15 +2 x29 +1 x32 +1 x33 +1 x34 +1 x35 +2 x39 >= 2 ;
+1 x19 +2 x35 +2 x37 +2 x38 +1 x39 +1 x40 >= 2 ;
+1 x2 +1 x21 +1 x22 +2 x23 +2 x24 +2 x26 >= 2 ;
+1 x3 +2 x22 +1 x23 +2 x25 +1 x27 +1 x28 +1 x30 >= 2 ;
+1 x4 +2 x22 +1 x24 +1 x25 +1 x27 +1 x28 +2 x31 >= 2 ;
+1 x5 +2 x23 +1 x24 +1 x25 +2 x29 +1 x32 +1 x34 >= 2 ;
+1 x6 +2 x22 +1 x26 +1 x27 +1 x28 +2 x30 +1 x31 >= 2 ;
+1 x7 +1 x23 +1 x24 +1 x26 +1 x27 +1 x29 +1 x32 +1 x33 +1 x36 >= 2 ;
+1 x8 +1 x23 +1 x24 +1 x26 +1 x28 +1 x29 +1 x33 +1 x34 +1 x36 >= 2 ;
+1 x9 +2 x25 +1 x27 +1 x28 +1 x29 +2 x35 +1 x37 >= 2 ;
+1 x6 +2 x22 +1 x26 +1 x27 +1 x28 +2 x30 +1 x31 >= 2 ;
+1 x10 +1 x23 +2 x26 +1 x30 +1 x32 +2 x33 +1 x34 >= 2 ;
+1 x11 +2 x24 +1 x26 +1 x31 +1 x32 +1 x34 +2 x36 >= 2 ;
+1 x12 +1 x25 +1 x27 +1 x30 +1 x31 +1 x32 +1 x35 +1 x37 +1 x38 >= 2 ;
+1 x10 +1 x23 +2 x26 +1 x30 +1 x32 +2 x33 +1 x34 >= 2 ;
+1 x13 +1 x27 +1 x28 +2 x30 +1 x33 +1 x35 +2 x38 >= 2 ;
+1 x14 +1 x25 +1 x28 +1 x30 +1 x31 +1 x34 +1 x35 +1 x37 +1 x38 >= 2 ;
+1 x15 +2 x29 +1 x32 +1 x33 +1 x34 +1 x35 +2 x39 >= 2 ;
+1 x4 +2 x22 +1 x24 +1 x25 +1 x27 +1 x28 +2 x31 >= 2 ;
+1 x8 +1 x23 +1 x24 +1 x26 +1 x28 +1 x29 +1 x33 +1 x34 +1 x36 >= 2 ;
+1 x11 +2 x24 +1 x26 +1 x31 +1 x32 +1 x34 +2 x36 >= 2 ;
+1 x14 +1 x25 +1 x28 +1 x30 +1 x31 +1 x34 +1 x35 +1 x37 +1 x38 >= 2 ;
+1 x11 +2 x24 +1 x26 +1 x31 +1 x32 +1 x34 +2 x36 >= 2 ;
+1 x16 +1 x27 +1 x28 +2 x31 +1 x36 +2 x37 +1 x38 >= 2 ;
+1 x16 +1 x27 +1 x28 +2 x31 +1 x36 +2 x37 +1 x38 >= 2 ;
+1 x17 +1 x29 +1 x32 +1 x34 +2 x36 +1 x37 +2 x39 >= 2 ;
+1 x7 +1 x23 +1 x24 +1 x26 +1 x27 +1 x29 +1 x32 +1 x33 +1 x36 >= 2 ;
+1 x13 +1 x27 +1 x28 +2 x30 +1 x33 +1 x35 +2 x38 >= 2 ;
+1 x16 +1 x27 +1 x28 +2 x31 +1 x36 +2 x37 +1 x38 >= 2 ;
+1 x18 +1 x32 +2 x33 +1 x34 +1 x36 +1 x38 +2 x39 >= 2 ;
+1 x12 +1 x25 +1 x27 +1 x30 +1 x31 +1 x32 +1 x35 +1 x37 +1 x38 >= 2 ;
+1 x18 +1 x32 +2 x33 +1 x34 +1 x36 +1 x38 +2 x39 >= 2 ;
+1 x17 +1 x29 +1 x32 +1 x34 +2 x36 +1 x37 +2 x39 >= 2 ;
+1 x19 +2 x35 +2 x37 +2 x38 +1 x39 +1 x40 >= 2 ;
+1 x3 +2 x22 +1 x23 +2 x25 +1 x27 +1 x28 +1 x30 >= 2 ;
+1 x5 +2 x23 +1 x24 +1 x25 +2 x29 +1 x32 +1 x34 >= 2 ;
+1 x7 +1 x23 +1 x24 +1 x26 +1 x27 +1 x29 +1 x32 +1 x33 +1 x36 >= 2 ;
+1 x9 +2 x25 +1 x27 +1 x28 +1 x29 +2 x35 +1 x37 >= 2 ;
+1 x10 +1 x23 +2 x26 +1 x30 +1 x32 +2 x33 +1 x34 >= 2 ;
+1 x12 +1 x25 +1 x27 +1 x30 +1 x31 +1 x32 +1 x35 +1 x37 +1 x38 >= 2 ;
+1 x13 +1 x27 +1 x28 +2 x30 +1 x33 +1 x35 +2 x38 >= 2 ;
+1 x15 +2 x29 +1 x32 +1 x33 +1 x34 +1 x35 +2 x39 >= 2 ;
+1 x8 +1 x23 +1 x24 +1 x26 +1 x28 +1 x29 +1 x33 +1 x34 +1 x36 >= 2 ;
+1 x14 +1 x25 +1 x28 +1 x30 +1 x31 +1 x34 +1 x35 +1 x37 +1 x38 >= 2 ;
+1 x16 +1 x27 +1 x28 +2 x31 +1 x36 +2 x37 +1 x38 >= 2 ;
+1 x17 +1 x29 +1 x32 +1 x34 +2 x36 +1 x37 +2 x39 >= 2 ;
+1 x13 +1 x27 +1 x28 +2 x30 +1 x33 +1 x35 +2 x38 >= 2 ;
+1 x18 +1 x32 +2 x33 +1 x34 +1 x36 +1 x38 +2 x39 >= 2 ;
+1 x18 +1 x32 +2 x33 +1 x34 +1 x36 +1 x38 +2 x39 >= 2 ;
+1 x19 +2 x35 +2 x37 +2 x38 +1 x39 +1 x40 >= 2 ;
+1 x5 +2 x23 +1 x24 +1 x25 +2 x29 +1 x32 +1 x34 >= 2 ;
+1 x9 +2 x25 +1 x27 +1 x28 +1 x29 +2 x35 +1 x37 >= 2 ;
+1 x12 +1 x25 +1 x27 +1 x30 +1 x31 +1 x32 +1 x35 +1 x37 +1 x38 >= 2 ;
+1 x15 +2 x29 +1 x32 +1 x33 +1 x34 +1 x35 +2 x39 >= 2 ;
+1 x14 +1 x25 +1 x28 +1 x30 +1 x31 +1 x34 +1 x35 +1 x37 +1 x38 >= 2 ;
+1 x17 +1 x29 +1 x32 +1 x34 +2 x36 +1 x37 +2 x39 >= 2 ;
+1 x18 +1 x32 +2 x33 +1 x34 +1 x36 +1 x38 +2 x39 >= 2 ;
+1 x19 +2 x35 +2 x37 +2 x38 +1 x39 +1 x40 >= 2 ;
+1 x9 +2 x25 +1 x27 +1 x28 +1 x29 +2 x35 +1 x37 >= 2 ;
+1 x15 +2 x29 +1 x32 +1 x33 +1 x34 +1 x35 +2 x39 >= 2 ;
+1 x17 +1 x29 +1 x32 +1 x34 +2 x36 +1 x37 +2 x39 >= 2 ;
+1 x19 +2 x35 +2 x37 +2 x38 +1 x39 +1 x40 >= 2 ;
+1 x15 +2 x29 +1 x32 +1 x33 +1 x34 +1 x35 +2 x39 >= 2 ;
+1 x19 +2 x35 +2 x37 +2 x38 +1 x39 +1 x40 >= 2 ;
+1 x19 +2 x35 +2 x37 +2 x38 +1 x39 +1 x40 >= 2 ;
+1 x20 +7 x39 +1 x40 >= 2 ;
-1 x1 -7 x2 -7 x3 -7 x4 -7 x5 -7 x6 -7 x7 -7 x8 -7 x9 -7 x10 -7 x11 -7 x12 -7 x13 -7 x14 -7 x15 -7 x16 -7 x17 -7 x18 -7 x19 -1 x20 -1 x21 -7 x22 -7 x23 -7 x24 -7 x25 -7 x26 -7 x27 -7 x28 -7 x29 -7 x30 -7 x31 -7 x32 -7 x33 -7 x34 -7 x35 -7 x36 -7 x37 -7 x38 -7 x39 -1 x40 >= -63 ;
