* #variable= 128 #constraint= 257 #equal= 0 intsize= 3
* prime-order-symmetric orbit-ILP for class p3_a1 (order 3, 128 orbits)
* x{i+1} = 1  iff  orbit O_i (0-indexed) is included in the invariant code
* coverage: sum_i cov(v,O_i) y_i >= 2 for every vertex v in F_2^8 (256 rows)
* cardinality: sum_i |O_i| y_i <= 63, in >= form
+1 x1 +3 x2 +1 x5 +1 x9 +1 x17 +1 x33 +1 x65 >= 2 ;
+1 x1 +1 x2 +2 x3 +1 x6 +1 x10 +1 x18 +1 x34 +1 x66 >= 2 ;
+1 x1 +1 x2 +2 x3 +1 x6 +1 x10 +1 x18 +1 x34 +1 x66 >= 2 ;
+2 x2 +1 x3 +1 x4 +1 x7 +1 x11 +1 x19 +1 x35 +1 x67 >= 2 ;
+1 x1 +1 x2 +2 x3 +1 x6 +1 x10 +1 x18 +1 x34 +1 x66 >= 2 ;
+2 x2 +1 x3 +1 x4 +1 x7 +1 x11 +1 x19 +1 x35 +1 x67 >= 2 ;
+2 x2 +1 x3 +1 x4 +1 x7 +1 x11 +1 x19 +1 x35 +1 x67 >= 2 ;
+3 x3 +1 x4 +1 x8 +1 x12 +1 x20 +1 x36 +1 x68 >= 2 ;
+1 x1 +1 x5 +3 x6 +1 x13 +1 x21 +1 x37 +1 x69 >= 2 ;
+1 x2 +1 x5 +1 x6 +2 x7 +1 x14 +1 x22 +1 x38 +1 x70 >= 2 ;
+1 x2 +1 x5 +1 x6 +2 x7 +1 x14 +1 x22 +1 x38 +1 x70 >= 2 ;
+1 x3 +2 x6 +1 x7 +1 x8 +1 x15 +1 x23 +1 x39 +1 x71 >= 2 ;
+1 x2 +1 x5 +1 x6 +2 x7 +1 x14 +1 x22 +1 x38 +1 x70 >= 2 ;
+1 x3 +2 x6 +1 x7 +1 x8 +1 x15 +1 x23 +1 x39 +1 x71 >= 2 ;
+1 x3 +2 x6 +1 x7 +1 x8 +1 x15 +1 x23 +1 x39 +1 x71 >= 2 ;
+1 x4 +3 x7 +1 x8 +1 x16 +1 x24 +1 x40 +1 x72 >= 2 ;
+1 x1 +1 x9 +3 x10 +1 x13 +1 x25 +1 x41 +1 x73 >= 2 ;
+1 x2 +1 x9 +1 x10 +2 x11 +1 x14 +1 x26 +1 x42 +1 x74 >= 2 ;
+1 x2 +1 x9 +1 x10 +2 x11 +1 x14 +1 x26 +1 x42 +1 x74 >= 2 ;
+1 x3 +2 x10 +1 x11 +1 x12 +1 x15 +1 x27 +1 x43 +1 x75 >= 2 ;
+1 x2 +1 x9 +1 x10 +2 x11 +1 x14 +1 x26 +1 x42 +1 x74 >= 2 ;
+1 x3 +2 x10 +1 x11 +1 x12 +1 x15 +1 x27 +1 x43 +1 x75 >= 2 ;
+1 x3 +2 x10 +1 x11 +1 x12 +1 x15 +1 x27 +1 x43 +1 x75 >= 2 ;
+1 x4 +3 x11 +1 x12 +1 x16 +1 x28 +1 x44 +1 x76 >= 2 ;
+1 x5 +1 x9 +1 x13 +3 x14 +1 x29 +1 x45 +1 x77 >= 2 ;
+1 x6 +1 x10 +1 x13 +1 x14 +2 x15 +1 x30 +1 x46 +1 x78 >= 2 ;
+1 x6 +1 x10 +1 x13 +1 x14 +2 x15 +1 x30 +1 x46 +1 x78 >= 2 ;
+1 x7 +1 x11 +2 x14 +1 x15 +1 x16 +1 x31 +1 x47 +1 x79 >= 2 ;
+1 x6 +1 x10 +1 x13 +1 x14 +2 x15 +1 x30 +1 x46 +1 x78 >= 2 ;
+1 x7 +1 x11 +2 x14 +1 x15 +1 x16 +1 x31 +1 x47 +1 x79 >= 2 ;
+1 x7 +1 x11 +2 x14 +1 x15 +1 x16 +1 x31 +1 x47 +1 x79 >= 2 ;
+1 x8 +1 x12 +3 x15 +1 x16 +1 x32 +1 x48 +1 x80 >= 2 ;
+1 x1 +1 x17 +3 x18 +1 x21 +1 x25 +1 x49 +1 x81 >= 2 ;
+1 x2 +1 x17 +1 x18 +2 x19 +1 x22 +1 x26 +1 x50 +1 x82 >= 2 ;
+1 x2 +1 x17 +1 x18 +2 x19 +1 x22 +1 x26 +1 x50 +1 x82 >= 2 ;
+1 x3 +2 x18 +1 x19 +1 x20 +1 x23 +1 x27 +1 x51 +1 x83 >= 2 ;
+1 x2 +1 x17 +1 x18 +2 x19 +1 x22 +1 x26 +1 x50 +1 x82 >= 2 ;
+1 x3 +2 x18 +1 x19 +1 x20 +1 x23 +1 x27 +1 x51 +1 x83 >= 2 ;
+1 x3 +2 x18 +1 x19 +1 x20 +1 x23 +1 x27 +1 x51 +1 x83 >= 2 ;
+1 x4 +3 x19 +1 x20 +1 x24 +1 x28 +1 x52 +1 x84 >= 2 ;
+1 x5 +1 x17 +1 x21 +3 x22 +1 x29 +1 x53 +1 x85 >= 2 ;
+1 x6 +1 x18 +1 x21 +1 x22 +2 x23 +1 x30 +1 x54 +1 x86 >= 2 ;
+1 x6 +1 x18 +1 x21 +1 x22 +2 x23 +1 x30 +1 x54 +1 x86 >= 2 ;
+1 x7 +1 x19 +2 x22 +1 x23 +1 x24 +1 x31 +1 x55 +1 x87 >= 2 ;
+1 x6 +1 x18 +1 x21 +1 x22 +2 x23 +1 x30 +1 x54 +1 x86 >= 2 ;
+1 x7 +1 x19 +2 x22 +1 x23 +1 x24 +1 x31 +1 x55 +1 x87 >= 2 ;
+1 x7 +1 x19 +2 x22 +1 x23 +1 x24 +1 x31 +1 x55 +1 x87 >= 2 ;
+1 x8 +1 x20 +3 x23 +1 x24 +1 x32 +1 x56 +1 x88 >= 2 ;
+1 x9 +1 x17 +1 x25 +3 x26 +1 x29 +1 x57 +1 x89 >= 2 ;
+1 x10 +1 x18 +1 x25 +1 x26 +2 x27 +1 x30 +1 x58 +1 x90 >= 2 ;
+1 x10 +1 x18 +1 x25 +1 x26 +2 x27 +1 x30 +1 x58 +1 x90 >= 2 ;
+1 x11 +1 x19 +2 x26 +1 x27 +1 x28 +1 x31 +1 x59 +1 x91 >= 2 ;
+1 x10 +1 x18 +1 x25 +1 x26 +2 x27 +1 x30 +1 x58 +1 x90 >= 2 ;
+1 x11 +1 x19 +2 x26 +1 x27 +1 x28 +1 x31 +1 x59 +1 x91 >= 2 ;
+1 x11 +1 x19 +2 x26 +1 x27 +1 x28 +1 x31 +1 x59 +1 x91 >= 2 ;
+1 x12 +1 x20 +3 x27 +1 x28 +1 x32 +1 x60 +1 x92 >= 2 ;
+1 x13 +1 x21 +1 x25 +1 x29 +3 x30 +1 x61 +1 x93 >= 2 ;
+1 x14 +1 x22 +1 x26 +1 x29 +1 x30 +2 x31 +1 x62 +1 x94 >= 2 ;
+1 x14 +1 x22 +1 x26 +1 x29 +1 x30 +2 x31 +1 x62 +1 x94 >= 2 ;
+1 x15 +1 x23 +1 x27 +2 x30 +1 x31 +1 x32 +1 x63 +1 x95 >= 2 ;
+1 x14 +1 x22 +1 x26 +1 x29 +1 x30 +2 x31 +1 x62 +1 x94 >= 2 ;
+1 x15 +1 x23 +1 x27 +2 x30 +1 x31 +1 x32 +1 x63 +1 x95 >= 2 ;
+1 x15 +1 x23 +1 x27 +2 x30 +1 x31 +1 x32 +1 x63 +1 x95 >= 2 ;
+1 x16 +1 x24 +1 x28 +3 x31 +1 x32 +1 x64 +1 x96 >= 2 ;
+1 x1 +1 x33 +3 x34 +1 x37 +1 x41 +1 x49 +1 x97 >= 2 ;
+1 x2 +1 x33 +1 x34 +2 x35 +1 x38 +1 x42 +1 x50 +1 x98 >= 2 ;
+1 x2 +1 x33 +1 x34 +2 x35 +1 x38 +1 x42 +1 x50 +1 x98 >= 2 ;
+1 x3 +2 x34 +1 x35 +1 x36 +1 x39 +1 x43 +1 x51 +1 x99 >= 2 ;
+1 x2 +1 x33 +1 x34 +2 x35 +1 x38 +1 x42 +1 x50 +1 x98 >= 2 ;
+1 x3 +2 x34 +1 x35 +1 x36 +1 x39 +1 x43 +1 x51 +1 x99 >= 2 ;
+1 x3 +2 x34 +1 x35 +1 x36 +1 x39 +1 x43 +1 x51 +1 x99 >= 2 ;
+1 x4 +3 x35 +1 x36 +1 x40 +1 x44 +1 x52 +1 x100 >= 2 ;
+1 x5 +1 x33 +1 x37 +3 x38 +1 x45 +1 x53 +1 x101 >= 2 ;
+1 x6 +1 x34 +1 x37 +1 x38 +2 x39 +1 x46 +1 x54 +1 x102 >= 2 ;
+1 x6 +1 x34 +1 x37 +1 x38 +2 x39 +1 x46 +1 x54 +1 x102 >= 2 ;
+1 x7 +1 x35 +2 x38 +1 x39 +1 x40 +1 x47 +1 x55 +1 x103 >= 2 ;
+1 x6 +1 x34 +1 x37 +1 x38 +2 x39 +1 x46 +1 x54 +1 x102 >= 2 ;
+1 x7 +1 x35 +2 x38 +1 x39 +1 x40 +1 x47 +1 x55 +1 x103 >= 2 ;
+1 x7 +1 x35 +2 x38 +1 x39 +1 x40 +1 x47 +1 x55 +1 x103 >= 2 ;
+1 x8 +1 x36 +3 x39 +1 x40 +1 x48 +1 x56 +1 x104 >= 2 ;
+1 x9 +1 x33 +1 x41 +3 x42 +1 x45 +1 x57 +1 x105 >= 2 ;
+1 x10 +1 x34 +1 x41 +1 x42 +2 x43 +1 x46 +1 x58 +1 x106 >= 2 ;
+1 x10 +1 x34 +1 x41 +1 x42 +2 x43 +1 x46 +1 x58 +1 x106 >= 2 ;
+1 x11 +1 x35 +2 x42 +1 x43 +1 x44 +1 x47 +1 x59 +1 x107 >= 2 ;
+1 x10 +1 x34 +1 x41 +1 x42 +2 x43 +1 x46 +1 x58 +1 x106 >= 2 ;
+1 x11 +1 x35 +2 x42 +1 x43 +1 x44 +1 x47 +1 x59 +1 x107 >= 2 ;
+1 x11 +1 x35 +2 x42 +1 x43 +1 x44 +1 x47 +1 x59 +1 x107 >= 2 ;
+1 x12 +1 x36 +3 x43 +1 x44 +1 x48 +1 x60 +1 x108 >= 2 ;
+1 x13 +1 x37 +1 x41 +1 x45 +3 x46 +1 x61 +1 x109 >= 2 ;
+1 x14 +1 x38 +1 x42 +1 x45 +1 x46 +2 x47 +1 x62 +1 x110 >= 2 ;
+1 x14 +1 x38 +1 x42 +1 x45 +1 x46 +2 x47 +1 x62 +1 x110 >= 2 ;
+1 x15 +1 x39 +1 x43 +2 x46 +1 x47 +1 x48 +1 x63 +1 x111 >= 2 ;
+1 x14 +1 x38 +1 x42 +1 x45 +1 x46 +2 x47 +1 x62 +1 x110 >= 2 ;
+1 x15 +1 x39 +1 x43 +2 x46 +1 x47 +1 x48 +1 x63 +1 x111 >= 2 ;
+1 x15 +1 x39 +1 x43 +2 x46 +1 x47 +1 x48 +1 x63 +1 x111 >= 2 ;
+1 x16 +1 x40 +1 x44 +3 x47 +1 x48 +1 x64 +1 x112 >= 2 ;
+1 x17 +1 x33 +1 x49 +3 x50 +1 x53 +1 x57 +1 x113 >= 2 ;
+1 x18 +1 x34 +1 x49 +1 x50 +2 x51 +1 x54 +1 x58 +1 x114 >= 2 ;
+1 x18 +1 x34 +1 x49 +1 x50 +2 x51 +1 x54 +1 x58 +1 x114 >= 2 ;
+1 x19 +1 x35 +2 x50 +1 x51 +1 x52 +1 x55 +1 x59 +1 x115 >= 2 ;
+1 x18 +1 x34 +1 x49 +1 x50 +2 x51 +1 x54 +1 x58 +1 x114 >= 2 ;
+1 x19 +1 x35 +2 x50 +1 x51 +1 x52 +1 x55 +1 x59 +1 x115 >= 2 ;
+1 x19 +1 x35 +2 x50 +1 x51 +1 x52 +1 x55 +1 x59 +1 x115 >= 2 ;
+1 x20 +1 x36 +3 x51 +1 x52 +1 x56 +1 x60 +1 x116 >= 2 ;
+1 x21 +1 x37 +1 x49 +1 x53 +3 x54 +1 x61 +1 x117 >= 2 ;
+1 x22 +1 x38 +1 x50 +1 x53 +1 x54 +2 x55 +1 x62 +1 x118 >= 2 ;
+1 x22 +1 x38 +1 x50 +1 x53 +1 x54 +2 x55 +1 x62 +1 x118 >= 2 ;
+1 x23 +1 x39 +1 x51 +2 x54 +1 x55 +1 x56 +1 x63 +1 x119 >= 2 ;
+1 x22 +1 x38 +1 x50 +1 x53 +1 x54 +2 x55 +1 x62 +1 x118 >= 2 ;
+1 x23 +1 x39 +1 x51 +2 x54 +1 x55 +1 x56 +1 x63 +1 x119 >= 2 ;
+1 x23 +1 x39 +1 x51 +2 x54 +1 x55 +1 x56 +1 x63 +1 x119 >= 2 ;
+1 x24 +1 x40 +1 x52 +3 x55 +1 x56 +1 x64 +1 x120 >= 2 ;
+1 x25 +1 x41 +1 x49 +1 x57 +3 x58 +1 x61 +1 x121 >= 2 ;
+1 x26 +1 x42 +1 x50 +1 x57 +1 x58 +2 x59 +1 x62 +1 x122 >= 2 ;
+1 x26 +1 x42 +1 x50 +1 x57 +1 x58 +2 x59 +1 x62 +1 x122 >= 2 ;
+1 x27 +1 x43 +1 x51 +2 x58 +1 x59 +1 x60 +1 x63 +1 x123 >= 2 ;
+1 x26 +1 x42 +1 x50 +1 x57 +1 x58 +2 x59 +1 x62 +1 x122 >= 2 ;
+1 x27 +1 x43 +1 x51 +2 x58 +1 x59 +1 x60 +1 x63 +1 x123 >= 2 ;
+1 x27 +1 x43 +1 x51 +2 x58 +1 x59 +1 x60 +1 x63 +1 x123 >= 2 ;
+1 x28 +1 x44 +1 x52 +3 x59 +1 x60 +1 x64 +1 x124 >= 2 ;
+1 x29 +1 x45 +1 x53 +1 x57 +1 x61 +3 x62 +1 x125 >= 2 ;
+1 x30 +1 x46 +1 x54 +1 x58 +1 x61 +1 x62 +2 x63 +1 x126 >= 2 ;
+1 x30 +1 x46 +1 x54 +1 x58 +1 x61 +1 x62 +2 x63 +1 x126 >= 2 ;
+1 x31 +1 x47 +1 x55 +1 x59 +2 x62 +1 x63 +1 x64 +1 x127 >= 2 ;
+1 x30 +1 x46 +1 x54 +1 x58 +1 x61 +1 x62 +2 x63 +1 x126 >= 2 ;
+1 x31 +1 x47 +1 x55 +1 x59 +2 x62 +1 x63 +1 x64 +1 x127 >= 2 ;
+1 x31 +1 x47 +1 x55 +1 x59 +2 x62 +1 x63 +1 x64 +1 x127 >= 2 ;
+1 x32 +1 x48 +1 x56 +1 x60 +3 x63 +1 x64 +1 x128 >= 2 ;
+1 x1 +1 x65 +3 x66 +1 x69 +1 x73 +1 x81 +1 x97 >= 2 ;
+1 x2 +1 x65 +1 x66 +2 x67 +1 x70 +1 x74 +1 x82 +1 x98 >= 2 ;
+1 x2 +1 x65 +1 x66 +2 x67 +1 x70 +1 x74 +1 x82 +1 x98 >= 2 ;
+1 x3 +2 x66 +1 x67 +1 x68 +1 x71 +1 x75 +1 x83 +1 x99 >= 2 ;
+1 x2 +1 x65 +1 x66 +2 x67 +1 x70 +1 x74 +1 x82 +1 x98 >= 2 ;
+1 x3 +2 x66 +1 x67 +1 x68 +1 x71 +1 x75 +1 x83 +1 x99 >= 2 ;
+1 x3 +2 x66 +1 x67 +1 x68 +1 x71 +1 x75 +1 x83 +1 x99 >= 2 ;
+1 x4 +3 x67 +1 x68 +1 x72 +1 x76 +1 x84 +1 x100 >= 2 ;
+1 x5 +1 x65 +1 x69 +3 x70 +1 x77 +1 x85 +1 x101 >= 2 ;
+1 x6 +1 x66 +1 x69 +1 x70 +2 x71 +1 x78 +1 x86 +1 x102 >= 2 ;
+1 x6 +1 x66 +1 x69 +1 x70 +2 x71 +1 x78 +1 x86 +1 x102 >= 2 ;
+1 x7 +1 x67 +2 x70 +1 x71 +1 x72 +1 x79 +1 x87 +1 x103 >= 2 ;
+1 x6 +1 x66 +1 x69 +1 x70 +2 x71 +1 x78 +1 x86 +1 x102 >= 2 ;
+1 x7 +1 x67 +2 x70 +1 x71 +1 x72 +1 x79 +1 x87 +1 x103 >= 2 ;
+1 x7 +1 x67 +2 x70 +1 x71 +1 x72 +1 x79 +1 x87 +1 x103 >= 2 ;
+1 x8 +1 x68 +3 x71 +1 x72 +1 x80 +1 x88 +1 x104 >= 2 ;
+1 x9 +1 x65 +1 x73 +3 x74 +1 x77 +1 x89 +1 x105 >= 2 ;
+1 x10 +1 x66 +1 x73 +1 x74 +2 x75 +1 x78 +1 x90 +1 x106 >= 2 ;
+1 x10 +1 x66 +1 x73 +1 x74 +2 x75 +1 x78 +1 x90 +1 x106 >= 2 ;
+1 x11 +1 x67 +2 x74 +1 x75 +1 x76 +1 x79 +1 x91 +1 x107 >= 2 ;
+1 x10 +1 x66 +1 x73 +1 x74 +2 x75 +1 x78 +1 x90 +1 x106 >= 2 ;
+1 x11 +1 x67 +2 x74 +1 x75 +1 x76 +1 x79 +1 x91 +1 x107 >= 2 ;
+1 x11 +1 x67 +2 x74 +1 x75 +1 x76 +1 x79 +1 x91 +1 x107 >= 2 ;
+1 x12 +1 x68 +3 x75 +1 x76 +1 x80 +1 x92 +1 x108 >= 2 ;
+1 x13 +1 x69 +1 x73 +1 x77 +3 x78 +1 x93 +1 x109 >= 2 ;
+1 x14 +1 x70 +1 x74 +1 x77 +1 x78 +2 x79 +1 x94 +1 x110 >= 2 ;
+1 x14 +1 x70 +1 x74 +1 x77 +1 x78 +2 x79 +1 x94 +1 x110 >= 2 ;
+1 x15 +1 x71 +1 x75 +2 x78 +1 x79 +1 x80 +1 x95 +1 x111 >= 2 ;
+1 x14 +1 x70 +1 x74 +1 x77 +1 x78 +2 x79 +1 x94 +1 x110 >= 2 ;
+1 x15 +1 x71 +1 x75 +2 x78 +1 x79 +1 x80 +1 x95 +1 x111 >= 2 ;
+1 x15 +1 x71 +1 x75 +2 x78 +1 x79 +1 x80 +1 x95 +1 x111 >= 2 ;
+1 x16 +1 x72 +1 x76 +3 x79 +1 x80 +1 x96 +1 x112 >= 2 ;
+1 x17 +1 x65 +1 x81 +3 x82 +1 x85 +1 x89 +1 x113 >= 2 ;
+1 x18 +1 x66 +1 x81 +1 x82 +2 x83 +1 x86 +1 x90 +1 x114 >= 2 ;
+1 x18 +1 x66 +1 x81 +1 x82 +2 x83 +1 x86 +1 x90 +1 x114 >= 2 ;
+1 x19 +1 x67 +2 x82 +1 x83 +1 x84 +1 x87 +1 x91 +1 x115 >= 2 ;
+1 x18 +1 x66 +1 x81 +1 x82 +2 x83 +1 x86 +1 x90 +1 x114 >= 2 ;
+1 x19 +1 x67 +2 x82 +1 x83 +1 x84 +1 x87 +1 x91 +1 x115 >= 2 ;
+1 x19 +1 x67 +2 x82 +1 x83 +1 x84 +1 x87 +1 x91 +1 x115 >= 2 ;
+1 x20 +1 x68 +3 x83 +1 x84 +1 x88 +1 x92 +1 x116 >= 2 ;
+1 x21 +1 x69 +1 x81 +1 x85 +3 x86 +1 x93 +1 x117 >= 2 ;
+1 x22 +1 x70 +1 x82 +1 x85 +1 x86 +2 x87 +1 x94 +1 x118 >= 2 ;
+1 x22 +1 x70 +1 x82 +1 x85 +1 x86 +2 x87 +1 x94 +1 x118 >= 2 ;
+1 x23 +1 x71 +1 x83 +2 x86 +1 x87 +1 x88 +1 x95 +1 x119 >= 2 ;
+1 x22 +1 x70 +1 x82 +1 x85 +1 x86 +2 x87 +1 x94 +1 x118 >= 2 ;
+1 x23 +1 x71 +1 x83 +2 x86 +1 x87 +1 x88 +1 x95 +1 x119 >= 2 ;
+1 x23 +1 x71 +1 x83 +2 x86 +1 x87 +1 x88 +1 x95 +1 x119 >= 2 ;
+1 x24 +1 x72 +1 x84 +3 x87 +1 x88 +1 x96 +1 x120 >= 2 ;
+1 x25 +1 x73 +1 x81 +1 x89 +3 x90 +1 x93 +1 x121 >= 2 ;
+1 x26 +1 x74 +1 x82 +1 x89 +1 x90 +2 x91 +1 x94 +1 x122 >= 2 ;
+1 x26 +1 x74 +1 x82 +1 x89 +1 x90 +2 x91 +1 x94 +1 x122 >= 2 ;
+1 x27 +1 x75 +1 x83 +2 x90 +1 x91 +1 x92 +1 x95 +1 x123 >= 2 ;
+1 x26 +1 x74 +1 x82 +1 x89 +1 x90 +2 x91 +1 x94 +1 x122 >= 2 ;
+1 x27 +1 x75 +1 x83 +2 x90 +1 x91 +1 x92 +1 x95 +1 x123 >= 2 ;
+1 x27 +1 x75 +1 x83 +2 x90 +1 x91 +1 x92 +1 x95 +1 x123 >= 2 ;
+1 x28 +1 x76 +1 x84 +3 x91 +1 x92 +1 x96 +1 x124 >= 2 ;
+1 x29 +1 x77 +1 x85 +1 x89 +1 x93 +3 x94 +1 x125 >= 2 ;
+1 x30 +1 x78 +1 x86 +1 x90 +1 x93 +1 x94 +2 x95 +1 x126 >= 2 ;
+1 x30 +1 x78 +1 x86 +1 x90 +1 x93 +1 x94 +2 x95 +1 x126 >= 2 ;
+1 x31 +1 x79 +1 x87 +1 x91 +2 x94 +1 x95 +1 x96 +1 x127 >= 2 ;
+1 x30 +1 x78 +1 x86 +1 x90 +1 x93 +1 x94 +2 x95 +1 x126 >= 2 ;
+1 x31 +1 x79 +1 x87 +1 x91 +2 x94 +1 x95 +1 x96 +1 x127 >= 2 ;
+1 x31 +1 x79 +1 x87 +1 x91 +2 x94 +1 x95 +1 x96 +1 x127 >= 2 ;
+1 x32 +1 x80 +1 x88 +1 x92 +3 x95 +1 x96 +1 x128 >= 2 ;
+1 x33 +1 x65 +1 x97 +3 x98 +1 x101 +1 x105 +1 x113 >= 2 ;
+1 x34 +1 x66 +1 x97 +1 x98 +2 x99 +1 x102 +1 x106 +1 x114 >= 2 ;
+1 x34 +1 x66 +1 x97 +1 x98 +2 x99 +1 x102 +1 x106 +1 x114 >= 2 ;
+1 x35 +1 x67 +2 x98 +1 x99 +1 x100 +1 x103 +1 x107 +1 x115 >= 2 ;
+1 x34 +1 x66 +1 x97 +1 x98 +2 x99 +1 x102 +1 x106 +1 x114 >= 2 ;
+1 x35 +1 x67 +2 x98 +1 x99 +1 x100 +1 x103 +1 x107 +1 x115 >= 2 ;
+1 x35 +1 x67 +2 x98 +1 x99 +1 x100 +1 x103 +1 x107 +1 x115 >= 2 ;
+1 x36 +1 x68 +3 x99 +1 x100 +1 x104 +1 x108 +1 x116 >= 2 ;
+1 x37 +1 x69 +1 x97 +1 x101 +3 x102 +1 x109 +1 x117 >= 2 ;
+1 x38 +1 x70 +1 x98 +1 x101 +1 x102 +2 x103 +1 x110 +1 x118 >= 2 ;
+1 x38 +1 x70 +1 x98 +1 x101 +1 x102 +2 x103 +1 x110 +1 x118 >= 2 ;
+1 x39 +1 x71 +1 x99 +2 x102 +1 x103 +1 x104 +1 x111 +1 x119 >= 2 ;
+1 x38 +1 x70 +1 x98 +1 x101 +1 x102 +2 x103 +1 x110 +1 x118 >= 2 ;
+1 x39 +1 x71 +1 x99 +2 x102 +1 x103 +1 x104 +1 x111 +1 x119 >= 2 ;
+1 x39 +1 x71 +1 x99 +2 x102 +1 x103 +1 x104 +1 x111 +1 x119 >= 2 ;
+1 x40 +1 x72 +1 x100 +3 x103 +1 x104 +1 x112 +1 x120 >= 2 ;
+1 x41 +1 x73 +1 x97 +1 x105 +3 x106 +1 x109 +1 x121 >= 2 ;
+1 x42 +1 x74 +1 x98 +1 x105 +1 x106 +2 x107 +1 x110 +1 x122 >= 2 ;
+1 x42 +1 x74 +1 x98 +1 x105 +1 x106 +2 x107 +1 x110 +1 x122 >= 2 ;
+1 x43 +1 x75 +1 x99 +2 x106 +1 x107 +1 x108 +1 x111 +1 x123 >= 2 ;
+1 x42 +1 x74 +1 x98 +1 x105 +1 x106 +2 x107 +1 x110 +1 x122 >= 2 ;
+1 x43 +1 x75 +1 x99 +2 x106 +1 x107 +1 x108 +1 x111 +1 x123 >= 2 ;
+1 x43 +1 x75 +1 x99 +2 x106 +1 x107 +1 x108 +1 x111 +1 x123 >= 2 ;
+1 x44 +1 x76 +1 x100 +3 x107 +1 x108 +1 x112 +1 x124 >= 2 ;
+1 x45 +1 x77 +1 x101 +1 x105 +1 x109 +3 x110 +1 x125 >= 2 ;
+1 x46 +1 x78 +1 x102 +1 x106 +1 x109 +1 x110 +2 x111 +1 x126 >= 2 ;
+1 x46 +1 x78 +1 x102 +1 x106 +1 x109 +1 x110 +2 x111 +1 x126 >= 2 ;
+1 x47 +1 x79 +1 x103 +1 x107 +2 x110 +1 x111 +1 x112 +1 x127 >= 2 ;
+1 x46 +1 x78 +1 x102 +1 x106 +1 x109 +1 x110 +2 x111 +1 x126 >= 2 ;
+1 x47 +1 x79 +1 x103 +1 x107 +2 x110 +1 x111 +1 x112 +1 x127 >= 2 ;
+1 x47 +1 x79 +1 x103 +1 x107 +2 x110 +1 x111 +1 x112 +1 x127 >= 2 ;
+1 x48 +1 x80 +1 x104 +1 x108 +3 x111 +1 x112 +1 x128 >= 2 ;
+1 x49 +1 x81 +1 x97 +1 x113 +3 x114 +1 x117 +1 x121 >= 2 ;
+1 x50 +1 x82 +1 x98 +1 x113 +1 x114 +2 x115 +1 x118 +1 x122 >= 2 ;
+1 x50 +1 x82 +1 x98 +1 x113 +1 x114 +2 x115 +1 x118 +1 x122 >= 2 ;
+1 x51 +1 x83 +1 x99 +2 x114 +1 x115 +1 x116 +1 x119 +1 x123 >= 2 ;
+1 x50 +1 x82 +1 x98 +1 x113 +1 x114 +2 x115 +1 x118 +1 x122 >= 2 ;
+1 x51 +1 x83 +1 x99 +2 x114 +1 x115 +1 x116 +1 x119 +1 x123 >= 2 ;
+1 x51 +1 x83 +1 x99 +2 x114 +1 x115 +1 x116 +1 x119 +1 x123 >= 2 ;
+1 x52 +1 x84 +1 x100 +3 x115 +1 x116 +1 x120 +1 x124 >= 2 ;
+1 x53 +1 x85 +1 x101 +1 x113 +1 x117 +3 x118 +1 x125 >= 2 ;
+1 x54 +1 x86 +1 x102 +1 x114 +1 x117 +1 x118 +2 x119 +1 x126 >= 2 ;
+1 x54 +1 x86 +1 x102 +1 x114 +1 x117 +1 x118 +2 x119 +1 x126 >= 2 ;
+1 x55 +1 x87 +1 x103 +1 x115 +2 x118 +1 x119 +1 x120 +1 x127 >= 2 ;
+1 x54 +1 x86 +1 x102 +1 x114 +1 x117 +1 x118 +2 x119 +1 x126 >= 2 ;
+1 x55 +1 x87 +1 x103 +1 x115 +2 x118 +1 x119 +1 x120 +1 x127 >= 2 ;
+1 x55 +1 x87 +1 x103 +1 x115 +2 x118 +1 x119 +1 x120 +1 x127 >= 2 ;
+1 x56 +1 x88 +1 x104 +1 x116 +3 x119 +1 x120 +1 x128 >= 2 ;
+1 x57 +1 x89 +1 x105 +1 x113 +1 x121 +3 x122 +1 x125 >= 2 ;
+1 x58 +1 x90 +1 x106 +1 x114 +1 x121 +1 x122 +2 x123 +1 x126 >= 2 ;
+1 x58 +1 x90 +1 x106 +1 x114 +1 x121 +1 x122 +2 x123 +1 x126 >= 2 ;
+1 x59 +1 x91 +1 x107 +1 x115 +2 x122 +1 x123 +1 x124 +1 x127 >= 2 ;
+1 x58 +1 x90 +1 x106 +1 x114 +1 x121 +1 x122 +2 x123 +1 x126 >= 2 ;
+1 x59 +1 x91 +1 x107 +1 x115 +2 x122 +1 x123 +1 x124 +1 x127 >= 2 ;
+1 x59 +1 x91 +1 x107 +1 x115 +2 x122 +1 x123 +1 x124 +1 x127 >= 2 ;
+1 x60 +1 x92 +1 x108 +1 x116 +3 x123 +1 x124 +1 x128 >= 2 ;
+1 x61 +1 x93 +1 x109 +1 x117 +1 x121 +1 x125 +3 x126 >= 2 ;
+1 x62 +1 x94 +1 x110 +1 x118 +1 x122 +1 x125 +1 x126 +2 x127 >= 2 ;
+1 x62 +1 x94 +1 x110 +1 x118 +1 x122 +1 x125 +1 x126 +2 x127 >= 2 ;
+1 x63 +1 x95 +1 x111 +1 x119 +1 x123 +2 x126 +1 x127 +1 x128 >= 2 ;
+1 x62 +1 x94 +1 x110 +1 x118 +1 x122 +1 x125 +1 x126 +2 x127 >= 2 ;
+1 x63 +1 x95 +1 x111 +1 x119 +1 x123 +2 x126 +1 x127 +1 x128 >= 2 ;
+1 x63 +1 x95 +1 x111 +1 x119 +1 x123 +2 x126 +1 x127 +1 x128 >= 2 ;
+1 x64 +1 x96 +1 x112 +1 x120 +1 x124 +3 x127 +1 x128 >= 2 ;
-1 x1 -3 x2 -3 x3 -1 x4 -1 x5 -3 x6 -3 x7 -1 x8 -1 x9 -3 x10 -3 x11 -1 x12 -1 x13 -3 x14 -3 x15 -1 x16 -1 x17 -3 x18 -3 x19 -1 x20 -1 x21 -3 x22 -3 x23 -1 x24 -1 x25 -3 x26 -3 x27 -1 x28 -1 x29 -3 x30 -3 x31 -1 x32 -1 x33 -3 x34 -3 x35 -1 x36 -1 x37 -3 x38 -3 x39 -1 x40 -1 x41 -3 x42 -3 x43 -1 x44 -1 x45 -3 x46 -3 x47 -1 x48 -1 x49 -3 x50 -3 x51 -1 x52 -1 x53 -3 x54 -3 x55 -1 x56 -1 x57 -3 x58 -3 x59 -1 x60 -1 x61 -3 x62 -3 x63 -1 x64 -1 x65 -3 x66 -3 x67 -1 x68 -1 x69 -3 x70 -3 x71 -1 x72 -1 x73 -3 x74 -3 x75 -1 x76 -1 x77 -3 x78 -3 x79 -1 x80 -1 x81 -3 x82 -3 x83 -1 x84 -1 x85 -3 x86 -3 x87 -1 x88 -1 x89 -3 x90 -3 x91 -1 x92 -1 x93 -3 x94 -3 x95 -1 x96 -1 x97 -3 x98 -3 x99 -1 x100 -1 x101 -3 x102 -3 x103 -1 x104 -1 x105 -3 x106 -3 x107 -1 x108 -1 x109 -3 x110 -3 x111 -1 x112 -1 x113 -3 x114 -3 x115 -1 x116 -1 x117 -3 x118 -3 x119 -1 x120 -1 x121 -3 x122 -3 x123 -1 x124 -1 x125 -3 x126 -3 x127 -1 x128 >= -63 ;
