* #variable= 64 #constraint= 257 #equal= 0 intsize= 3
* prime-order-symmetric orbit-ILP for class p5_a1 (order 5, 64 orbits)
* x{i+1} = 1  iff  orbit O_i (0-indexed) is included in the invariant code
* coverage: sum_i cov(v,O_i) y_i >= 2 for every vertex v in F_2^8 (256 rows)
* cardinality: sum_i |O_i| y_i <= 63, in >= form
+1 x1 +5 x2 +1 x9 +1 x17 +1 x33 >= 2 ;
+1 x1 +1 x2 +2 x3 +2 x4 +1 x10 +1 x18 +1 x34 >= 2 ;
+1 x1 +1 x2 +2 x3 +2 x4 +1 x10 +1 x18 +1 x34 >= 2 ;
+2 x2 +1 x3 +2 x5 +1 x6 +1 x11 +1 x19 +1 x35 >= 2 ;
+1 x1 +1 x2 +2 x3 +2 x4 +1 x10 +1 x18 +1 x34 >= 2 ;
+2 x2 +1 x4 +1 x5 +2 x6 +1 x12 +1 x20 +1 x36 >= 2 ;
+2 x2 +1 x3 +2 x5 +1 x6 +1 x11 +1 x19 +1 x35 >= 2 ;
+2 x3 +1 x4 +1 x5 +2 x7 +1 x13 +1 x21 +1 x37 >= 2 ;
+1 x1 +1 x2 +2 x3 +2 x4 +1 x10 +1 x18 +1 x34 >= 2 ;
+2 x2 +1 x4 +1 x5 +2 x6 +1 x12 +1 x20 +1 x36 >= 2 ;
+2 x2 +1 x4 +1 x5 +2 x6 +1 x12 +1 x20 +1 x36 >= 2 ;
+1 x3 +2 x4 +1 x6 +2 x7 +1 x14 +1 x22 +1 x38 >= 2 ;
+2 x2 +1 x3 +2 x5 +1 x6 +1 x11 +1 x19 +1 x35 >= 2 ;
+1 x3 +2 x4 +1 x6 +2 x7 +1 x14 +1 x22 +1 x38 >= 2 ;
+2 x3 +1 x4 +1 x5 +2 x7 +1 x13 +1 x21 +1 x37 >= 2 ;
+2 x5 +2 x6 +1 x7 +1 x8 +1 x15 +1 x23 +1 x39 >= 2 ;
+1 x1 +1 x2 +2 x3 +2 x4 +1 x10 +1 x18 +1 x34 >= 2 ;
+2 x2 +1 x3 +2 x5 +1 x6 +1 x11 +1 x19 +1 x35 >= 2 ;
+2 x2 +1 x4 +1 x5 +2 x6 +1 x12 +1 x20 +1 x36 >= 2 ;
+2 x3 +1 x4 +1 x5 +2 x7 +1 x13 +1 x21 +1 x37 >= 2 ;
+2 x2 +1 x4 +1 x5 +2 x6 +1 x12 +1 x20 +1 x36 >= 2 ;
+1 x3 +2 x4 +1 x6 +2 x7 +1 x14 +1 x22 +1 x38 >= 2 ;
+1 x3 +2 x4 +1 x6 +2 x7 +1 x14 +1 x22 +1 x38 >= 2 ;
+2 x5 +2 x6 +1 x7 +1 x8 +1 x15 +1 x23 +1 x39 >= 2 ;
+2 x2 +1 x3 +2 x5 +1 x6 +1 x11 +1 x19 +1 x35 >= 2 ;
+2 x3 +1 x4 +1 x5 +2 x7 +1 x13 +1 x21 +1 x37 >= 2 ;
+1 x3 +2 x4 +1 x6 +2 x7 +1 x14 +1 x22 +1 x38 >= 2 ;
+2 x5 +2 x6 +1 x7 +1 x8 +1 x15 +1 x23 +1 x39 >= 2 ;
+2 x3 +1 x4 +1 x5 +2 x7 +1 x13 +1 x21 +1 x37 >= 2 ;
+2 x5 +2 x6 +1 x7 +1 x8 +1 x15 +1 x23 +1 x39 >= 2 ;
+2 x5 +2 x6 +1 x7 +1 x8 +1 x15 +1 x23 +1 x39 >= 2 ;
+5 x7 +1 x8 +1 x16 +1 x24 +1 x40 >= 2 ;
+1 x1 +1 x9 +5 x10 +1 x25 +1 x41 >= 2 ;
+1 x2 +1 x9 +1 x10 +2 x11 +2 x12 +1 x26 +1 x42 >= 2 ;
+1 x2 +1 x9 +1 x10 +2 x11 +2 x12 +1 x26 +1 x42 >= 2 ;
+1 x3 +2 x10 +1 x11 +2 x13 +1 x14 +1 x27 +1 x43 >= 2 ;
+1 x2 +1 x9 +1 x10 +2 x11 +2 x12 +1 x26 +1 x42 >= 2 ;
+1 x4 +2 x10 +1 x12 +1 x13 +2 x14 +1 x28 +1 x44 >= 2 ;
+1 x3 +2 x10 +1 x11 +2 x13 +1 x14 +1 x27 +1 x43 >= 2 ;
+1 x5 +2 x11 +1 x12 +1 x13 +2 x15 +1 x29 +1 x45 >= 2 ;
+1 x2 +1 x9 +1 x10 +2 x11 +2 x12 +1 x26 +1 x42 >= 2 ;
+1 x4 +2 x10 +1 x12 +1 x13 +2 x14 +1 x28 +1 x44 >= 2 ;
+1 x4 +2 x10 +1 x12 +1 x13 +2 x14 +1 x28 +1 x44 >= 2 ;
+1 x6 +1 x11 +2 x12 +1 x14 +2 x15 +1 x30 +1 x46 >= 2 ;
+1 x3 +2 x10 +1 x11 +2 x13 +1 x14 +1 x27 +1 x43 >= 2 ;
+1 x6 +1 x11 +2 x12 +1 x14 +2 x15 +1 x30 +1 x46 >= 2 ;
+1 x5 +2 x11 +1 x12 +1 x13 +2 x15 +1 x29 +1 x45 >= 2 ;
+1 x7 +2 x13 +2 x14 +1 x15 +1 x16 +1 x31 +1 x47 >= 2 ;
+1 x2 +1 x9 +1 x10 +2 x11 +2 x12 +1 x26 +1 x42 >= 2 ;
+1 x3 +2 x10 +1 x11 +2 x13 +1 x14 +1 x27 +1 x43 >= 2 ;
+1 x4 +2 x10 +1 x12 +1 x13 +2 x14 +1 x28 +1 x44 >= 2 ;
+1 x5 +2 x11 +1 x12 +1 x13 +2 x15 +1 x29 +1 x45 >= 2 ;
+1 x4 +2 x10 +1 x12 +1 x13 +2 x14 +1 x28 +1 x44 >= 2 ;
+1 x6 +1 x11 +2 x12 +1 x14 +2 x15 +1 x30 +1 x46 >= 2 ;
+1 x6 +1 x11 +2 x12 +1 x14 +2 x15 +1 x30 +1 x46 >= 2 ;
+1 x7 +2 x13 +2 x14 +1 x15 +1 x16 +1 x31 +1 x47 >= 2 ;
+1 x3 +2 x10 +1 x11 +2 x13 +1 x14 +1 x27 +1 x43 >= 2 ;
+1 x5 +2 x11 +1 x12 +1 x13 +2 x15 +1 x29 +1 x45 >= 2 ;
+1 x6 +1 x11 +2 x12 +1 x14 +2 x15 +1 x30 +1 x46 >= 2 ;
+1 x7 +2 x13 +2 x14 +1 x15 +1 x16 +1 x31 +1 x47 >= 2 ;
+1 x5 +2 x11 +1 x12 +1 x13 +2 x15 +1 x29 +1 x45 >= 2 ;
+1 x7 +2 x13 +2 x14 +1 x15 +1 x16 +1 x31 +1 x47 >= 2 ;
+1 x7 +2 x13 +2 x14 +1 x15 +1 x16 +1 x31 +1 x47 >= 2 ;
+1 x8 +5 x15 +1 x16 +1 x32 +1 x48 >= 2 ;
+1 x1 +1 x17 +5 x18 +1 x25 +1 x49 >= 2 ;
+1 x2 +1 x17 +1 x18 +2 x19 +2 x20 +1 x26 +1 x50 >= 2 ;
+1 x2 +1 x17 +1 x18 +2 x19 +2 x20 +1 x26 +1 x50 >= 2 ;
+1 x3 +2 x18 +1 x19 +2 x21 +1 x22 +1 x27 +1 x51 >= 2 ;
+1 x2 +1 x17 +1 x18 +2 x19 +2 x20 +1 x26 +1 x50 >= 2 ;
+1 x4 +2 x18 +1 x20 +1 x21 +2 x22 +1 x28 +1 x52 >= 2 ;
+1 x3 +2 x18 +1 x19 +2 x21 +1 x22 +1 x27 +1 x51 >= 2 ;
+1 x5 +2 x19 +1 x20 +1 x21 +2 x23 +1 x29 +1 x53 >= 2 ;
+1 x2 +1 x17 +1 x18 +2 x19 +2 x20 +1 x26 +1 x50 >= 2 ;
+1 x4 +2 x18 +1 x20 +1 x21 +2 x22 +1 x28 +1 x52 >= 2 ;
+1 x4 +2 x18 +1 x20 +1 x21 +2 x22 +1 x28 +1 x52 >= 2 ;
+1 x6 +1 x19 +2 x20 +1 x22 +2 x23 +1 x30 +1 x54 >= 2 ;
+1 x3 +2 x18 +1 x19 +2 x21 +1 x22 +1 x27 +1 x51 >= 2 ;
+1 x6 +1 x19 +2 x20 +1 x22 +2 x23 +1 x30 +1 x54 >= 2 ;
+1 x5 +2 x19 +1 x20 +1 x21 +2 x23 +1 x29 +1 x53 >= 2 ;
+1 x7 +2 x21 +2 x22 +1 x23 +1 x24 +1 x31 +1 x55 >= 2 ;
+1 x2 +1 x17 +1 x18 +2 x19 +2 x20 +1 x26 +1 x50 >= 2 ;
+1 x3 +2 x18 +1 x19 +2 x21 +1 x22 +1 x27 +1 x51 >= 2 ;
+1 x4 +2 x18 +1 x20 +1 x21 +2 x22 +1 x28 +1 x52 >= 2 ;
+1 x5 +2 x19 +1 x20 +1 x21 +2 x23 +1 x29 +1 x53 >= 2 ;
+1 x4 +2 x18 +1 x20 +1 x21 +2 x22 +1 x28 +1 x52 >= 2 ;
+1 x6 +1 x19 +2 x20 +1 x22 +2 x23 +1 x30 +1 x54 >= 2 ;
+1 x6 +1 x19 +2 x20 +1 x22 +2 x23 +1 x30 +1 x54 >= 2 ;
+1 x7 +2 x21 +2 x22 +1 x23 +1 x24 +1 x31 +1 x55 >= 2 ;
+1 x3 +2 x18 +1 x19 +2 x21 +1 x22 +1 x27 +1 x51 >= 2 ;
+1 x5 +2 x19 +1 x20 +1 x21 +2 x23 +1 x29 +1 x53 >= 2 ;
+1 x6 +1 x19 +2 x20 +1 x22 +2 x23 +1 x30 +1 x54 >= 2 ;
+1 x7 +2 x21 +2 x22 +1 x23 +1 x24 +1 x31 +1 x55 >= 2 ;
+1 x5 +2 x19 +1 x20 +1 x21 +2 x23 +1 x29 +1 x53 >= 2 ;
+1 x7 +2 x21 +2 x22 +1 x23 +1 x24 +1 x31 +1 x55 >= 2 ;
+1 x7 +2 x21 +2 x22 +1 x23 +1 x24 +1 x31 +1 x55 >= 2 ;
+1 x8 +5 x23 +1 x24 +1 x32 +1 x56 >= 2 ;
+1 x9 +1 x17 +1 x25 +5 x26 +1 x57 >= 2 ;
+1 x10 +1 x18 +1 x25 +1 x26 +2 x27 +2 x28 +1 x58 >= 2 ;
+1 x10 +1 x18 +1 x25 +1 x26 +2 x27 +2 x28 +1 x58 >= 2 ;
+1 x11 +1 x19 +2 x26 +1 x27 +2 x29 +1 x30 +1 x59 >= 2 ;
+1 x10 +1 x18 +1 x25 +1 x26 +2 x27 +2 x28 +1 x58 >= 2 ;
+1 x12 +1 x20 +2 x26 +1 x28 +1 x29 +2 x30 +1 x60 >= 2 ;
+1 x11 +1 x19 +2 x26 +1 x27 +2 x29 +1 x30 +1 x59 >= 2 ;
+1 x13 +1 x21 +2 x27 +1 x28 +1 x29 +2 x31 +1 x61 >= 2 ;
+1 x10 +1 x18 +1 x25 +1 x26 +2 x27 +2 x28 +1 x58 >= 2 ;
+1 x12 +1 x20 +2 x26 +1 x28 +1 x29 +2 x30 +1 x60 >= 2 ;
+1 x12 +1 x20 +2 x26 +1 x28 +1 x29 +2 x30 +1 x60 >= 2 ;
+1 x14 +1 x22 +1 x27 +2 x28 +1 x30 +2 x31 +1 x62 >= 2 ;
+1 x11 +1 x19 +2 x26 +1 x27 +2 x29 +1 x30 +1 x59 >= 2 ;
+1 x14 +1 x22 +1 x27 +2 x28 +1 x30 +2 x31 +1 x62 >= 2 ;
+1 x13 +1 x21 +2 x27 +1 x28 +1 x29 +2 x31 +1 x61 >= 2 ;
+1 x15 +1 x23 +2 x29 +2 x30 +1 x31 +1 x32 +1 x63 >= 2 ;
+1 x10 +1 x18 +1 x25 +1 x26 +2 x27 +2 x28 +1 x58 >= 2 ;
+1 x11 +1 x19 +2 x26 +1 x27 +2 x29 +1 x30 +1 x59 >= 2 ;
+1 x12 +1 x20 +2 x26 +1 x28 +1 x29 +2 x30 +1 x60 >= 2 ;
+1 x13 +1 x21 +2 x27 +1 x28 +1 x29 +2 x31 +1 x61 >= 2 ;
+1 x12 +1 x20 +2 x26 +1 x28 +1 x29 +2 x30 +1 x60 >= 2 ;
+1 x14 +1 x22 +1 x27 +2 x28 +1 x30 +2 x31 +1 x62 >= 2 ;
+1 x14 +1 x22 +1 x27 +2 x28 +1 x30 +2 x31 +1 x62 >= 2 ;
+1 x15 +1 x23 +2 x29 +2 x30 +1 x31 +1 x32 +1 x63 >= 2 ;
+1 x11 +1 x19 +2 x26 +1 x27 +2 x29 +1 x30 +1 x59 >= 2 ;
+1 x13 +1 x21 +2 x27 +1 x28 +1 x29 +2 x31 +1 x61 >= 2 ;
+1 x14 +1 x22 +1 x27 +2 x28 +1 x30 +2 x31 +1 x62 >= 2 ;
+1 x15 +1 x23 +2 x29 +2 x30 +1 x31 +1 x32 +1 x63 >= 2 ;
+1 x13 +1 x21 +2 x27 +1 x28 +1 x29 +2 x31 +1 x61 >= 2 ;
+1 x15 +1 x23 +2 x29 +2 x30 +1 x31 +1 x32 +1 x63 >= 2 ;
+1 x15 +1 x23 +2 x29 +2 x30 +1 x31 +1 x32 +1 x63 >= 2 ;
+1 x16 +1 x24 +5 x31 +1 x32 +1 x64 >= 2 ;
+1 x1 +1 x33 +5 x34 +1 x41 +1 x49 >= 2 ;
+1 x2 +1 x33 +1 x34 +2 x35 +2 x36 +1 x42 +1 x50 >= 2 ;
+1 x2 +1 x33 +1 x34 +2 x35 +2 x36 +1 x42 +1 x50 >= 2 ;
+1 x3 +2 x34 +1 x35 +2 x37 +1 x38 +1 x43 +1 x51 >= 2 ;
+1 x2 +1 x33 +1 x34 +2 x35 +2 x36 +1 x42 +1 x50 >= 2 ;
+1 x4 +2 x34 +1 x36 +1 x37 +2 x38 +1 x44 +1 x52 >= 2 ;
+1 x3 +2 x34 +1 x35 +2 x37 +1 x38 +1 x43 +1 x51 >= 2 ;
+1 x5 +2 x35 +1 x36 +1 x37 +2 x39 +1 x45 +1 x53 >= 2 ;
+1 x2 +1 x33 +1 x34 +2 x35 +2 x36 +1 x42 +1 x50 >= 2 ;
+1 x4 +2 x34 +1 x36 +1 x37 +2 x38 +1 x44 +1 x52 >= 2 ;
+1 x4 +2 x34 +1 x36 +1 x37 +2 x38 +1 x44 +1 x52 >= 2 ;
+1 x6 +1 x35 +2 x36 +1 x38 +2 x39 +1 x46 +1 x54 >= 2 ;
+1 x3 +2 x34 +1 x35 +2 x37 +1 x38 +1 x43 +1 x51 >= 2 ;
+1 x6 +1 x35 +2 x36 +1 x38 +2 x39 +1 x46 +1 x54 >= 2 ;
+1 x5 +2 x35 +1 x36 +1 x37 +2 x39 +1 x45 +1 x53 >= 2 ;
+1 x7 +2 x37 +2 x38 +1 x39 +1 x40 +1 x47 +1 x55 >= 2 ;
+1 x2 +1 x33 +1 x34 +2 x35 +2 x36 +1 x42 +1 x50 >= 2 ;
+1 x3 +2 x34 +1 x35 +2 x37 +1 x38 +1 x43 +1 x51 >= 2 ;
+1 x4 +2 x34 +1 x36 +1 x37 +2 x38 +1 x44 +1 x52 >= 2 ;
+1 x5 +2 x35 +1 x36 +1 x37 +2 x39 +1 x45 +1 x53 >= 2 ;
+1 x4 +2 x34 +1 x36 +1 x37 +2 x38 +1 x44 +1 x52 >= 2 ;
+1 x6 +1 x35 +2 x36 +1 x38 +2 x39 +1 x46 +1 x54 >= 2 ;
+1 x6 +1 x35 +2 x36 +1 x38 +2 x39 +1 x46 +1 x54 >= 2 ;
+1 x7 +2 x37 +2 x38 +1 x39 +1 x40 +1 x47 +1 x55 >= 2 ;
+1 x3 +2 x34 +1 x35 +2 x37 +1 x38 +1 x43 +1 x51 >= 2 ;
+1 x5 +2 x35 +1 x36 +1 x37 +2 x39 +1 x45 +1 x53 >= 2 ;
+1 x6 +1 x35 +2 x36 +1 x38 +2 x39 +1 x46 +1 x54 >= 2 ;
+1 x7 +2 x37 +2 x38 +1 x39 +1 x40 +1 x47 +1 x55 >= 2 ;
+1 x5 +2 x35 +1 x36 +1 x37 +2 x39 +1 x45 +1 x53 >= 2 ;
+1 x7 +2 x37 +2 x38 +1 x39 +1 x40 +1 x47 +1 x55 >= 2 ;
+1 x7 +2 x37 +2 x38 +1 x39 +1 x40 +1 x47 +1 x55 >= 2 ;
+1 x8 +5 x39 +1 x40 +1 x48 +1 x56 >= 2 ;
+1 x9 +1 x33 +1 x41 +5 x42 +1 x57 >= 2 ;
+1 x10 +1 x34 +1 x41 +1 x42 +2 x43 +2 x44 +1 x58 >= 2 ;
+1 x10 +1 x34 +1 x41 +1 x42 +2 x43 +2 x44 +1 x58 >= 2 ;
+1 x11 +1 x35 +2 x42 +1 x43 +2 x45 +1 x46 +1 x59 >= 2 ;
+1 x10 +1 x34 +1 x41 +1 x42 +2 x43 +2 x44 +1 x58 >= 2 ;
+1 x12 +1 x36 +2 x42 +1 x44 +1 x45 +2 x46 +1 x60 >= 2 ;
+1 x11 +1 x35 +2 x42 +1 x43 +2 x45 +1 x46 +1 x59 >= 2 ;
+1 x13 +1 x37 +2 x43 +1 x44 +1 x45 +2 x47 +1 x61 >= 2 ;
+1 x10 +1 x34 +1 x41 +1 x42 +2 x43 +2 x44 +1 x58 >= 2 ;
+1 x12 +1 x36 +2 x42 +1 x44 +1 x45 +2 x46 +1 x60 >= 2 ;
+1 x12 +1 x36 +2 x42 +1 x44 +1 x45 +2 x46 +1 x60 >= 2 ;
+1 x14 +1 x38 +1 x43 +2 x44 +1 x46 +2 x47 +1 x62 >= 2 ;
+1 x11 +1 x35 +2 x42 +1 x43 +2 x45 +1 x46 +1 x59 >= 2 ;
+1 x14 +1 x38 +1 x43 +2 x44 +1 x46 +2 x47 +1 x62 >= 2 ;
+1 x13 +1 x37 +2 x43 +1 x44 +1 x45 +2 x47 +1 x61 >= 2 ;
+1 x15 +1 x39 +2 x45 +2 x46 +1 x47 +1 x48 +1 x63 >= 2 ;
+1 x10 +1 x34 +1 x41 +1 x42 +2 x43 +2 x44 +1 x58 >= 2 ;
+1 x11 +1 x35 +2 x42 +1 x43 +2 x45 +1 x46 +1 x59 >= 2 ;
+1 x12 +1 x36 +2 x42 +1 x44 +1 x45 +2 x46 +1 x60 >= 2 ;
+1 x13 +1 x37 +2 x43 +1 x44 +1 x45 +2 x47 +1 x61 >= 2 ;
+1 x12 +1 x36 +2 x42 +1 x44 +1 x45 +2 x46 +1 x60 >= 2 ;
+1 x14 +1 x38 +1 x43 +2 x44 +1 x46 +2 x47 +1 x62 >= 2 ;
+1 x14 +1 x38 +1 x43 +2 x44 +1 x46 +2 x47 +1 x62 >= 2 ;
+1 x15 +1 x39 +2 x45 +2 x46 +1 x47 +1 x48 +1 x63 >= 2 ;
+1 x11 +1 x35 +2 x42 +1 x43 +2 x45 +1 x46 +1 x59 >= 2 ;
+1 x13 +1 x37 +2 x43 +1 x44 +1 x45 +2 x47 +1 x61 >= 2 ;
+1 x14 +1 x38 +1 x43 +2 x44 +1 x46 +2 x47 +1 x62 >= 2 ;
+1 x15 +1 x39 +2 x45 +2 x46 +1 x47 +1 x48 +1 x63 >= 2 ;
+1 x13 +1 x37 +2 x43 +1 x44 +1 x45 +2 x47 +1 x61 >= 2 ;
+1 x15 +1 x39 +2 x45 +2 x46 +1 x47 +1 x48 +1 x63 >= 2 ;
+1 x15 +1 x39 +2 x45 +2 x46 +1 x47 +1 x48 +1 x63 >= 2 ;
+1 x16 +1 x40 +5 x47 +1 x48 +1 x64 >= 2 ;
+1 x17 +1 x33 +1 x49 +5 x50 +1 x57 >= 2 ;
+1 x18 +1 x34 +1 x49 +1 x50 +2 x51 +2 x52 +1 x58 >= 2 ;
+1 x18 +1 x34 +1 x49 +1 x50 +2 x51 +2 x52 +1 x58 >= 2 ;
+1 x19 +1 x35 +2 x50 +1 x51 +2 x53 +1 x54 +1 x59 >= 2 ;
+1 x18 +1 x34 +1 x49 +1 x50 +2 x51 +2 x52 +1 x58 >= 2 ;
+1 x20 +1 x36 +2 x50 +1 x52 +1 x53 +2 x54 +1 x60 >= 2 ;
+1 x19 +1 x35 +2 x50 +1 x51 +2 x53 +1 x54 +1 x59 >= 2 ;
+1 x21 +1 x37 +2 x51 +1 x52 +1 x53 +2 x55 +1 x61 >= 2 ;
+1 x18 +1 x34 +1 x49 +1 x50 +2 x51 +2 x52 +1 x58 >= 2 ;
+1 x20 +1 x36 +2 x50 +1 x52 +1 x53 +2 x54 +1 x60 >= 2 ;
+1 x20 +1 x36 +2 x50 +1 x52 +1 x53 +2 x54 +1 x60 >= 2 ;
+1 x22 +1 x38 +1 x51 +2 x52 +1 x54 +2 x55 +1 x62 >= 2 ;
+1 x19 +1 x35 +2 x50 +1 x51 +2 x53 +1 x54 +1 x59 >= 2 ;
+1 x22 +1 x38 +1 x51 +2 x52 +1 x54 +2 x55 +1 x62 >= 2 ;
+1 x21 +1 x37 +2 x51 +1 x52 +1 x53 +2 x55 +1 x61 >= 2 ;
+1 x23 +1 x39 +2 x53 +2 x54 +1 x55 +1 x56 +1 x63 >= 2 ;
+1 x18 +1 x34 +1 x49 +1 x50 +2 x51 +2 x52 +1 x58 >= 2 ;
+1 x19 +1 x35 +2 x50 +1 x51 +2 x53 +1 x54 +1 x59 >= 2 ;
+1 x20 +1 x36 +2 x50 +1 x52 +1 x53 +2 x54 +1 x60 >= 2 ;
+1 x21 +1 x37 +2 x51 +1 x52 +1 x53 +2 x55 +1 x61 >= 2 ;
+1 x20 +1 x36 +2 x50 +1 x52 +1 x53 +2 x54 +1 x60 >= 2 ;
+1 x22 +1 x38 +1 x51 +2 x52 +1 x54 +2 x55 +1 x62 >= 2 ;
+1 x22 +1 x38 +1 x51 +2 x52 +1 x54 +2 x55 +1 x62 >= 2 ;
+1 x23 +1 x39 +2 x53 +2 x54 +1 x55 +1 x56 +1 x63 >= 2 ;
+1 x19 +1 x35 +2 x50 +1 x51 +2 x53 +1 x54 +1 x59 >= 2 ;
+1 x21 +1 x37 +2 x51 +1 x52 +1 x53 +2 x55 +1 x61 >= 2 ;
+1 x22 +1 x38 +1 x51 +2 x52 +1 x54 +2 x55 +1 x62 >= 2 ;
+1 x23 +1 x39 +2 x53 +2 x54 +1 x55 +1 x56 +1 x63 >= 2 ;
+1 x21 +1 x37 +2 x51 +1 x52 +1 x53 +2 x55 +1 x61 >= 2 ;
+1 x23 +1 x39 +2 x53 +2 x54 +1 x55 +1 x56 +1 x63 >= 2 ;
+1 x23 +1 x39 +2 x53 +2 x54 +1 x55 +1 x56 +1 x63 >= 2 ;
+1 x24 +1 x40 +5 x55 +1 x56 +1 x64 >= 2 ;
+1 x25 +1 x41 +1 x49 +1 x57 +5 x58 >= 2 ;
+1 x26 +1 x42 +1 x50 +1 x57 +1 x58 +2 x59 +2 x60 >= 2 ;
+1 x26 +1 x42 +1 x50 +1 x57 +1 x58 +2 x59 +2 x60 >= 2 ;
+1 x27 +1 x43 +1 x51 +2 x58 +1 x59 +2 x61 +1 x62 >= 2 ;
+1 x26 +1 x42 +1 x50 +1 x57 +1 x58 +2 x59 +2 x60 >= 2 ;
+1 x28 +1 x44 +1 x52 +2 x58 +1 x60 +1 x61 +2 x62 >= 2 ;
+1 x27 +1 x43 +1 x51 +2 x58 +1 x59 +2 x61 +1 x62 >= 2 ;
+1 x29 +1 x45 +1 x53 +2 x59 +1 x60 +1 x61 +2 x63 >= 2 ;
+1 x26 +1 x42 +1 x50 +1 x57 +1 x58 +2 x59 +2 x60 >= 2 ;
+1 x28 +1 x44 +1 x52 +2 x58 +1 x60 +1 x61 +2 x62 >= 2 ;
+1 x28 +1 x44 +1 x52 +2 x58 +1 x60 +1 x61 +2 x62 >= 2 ;
+1 x30 +1 x46 +1 x54 +1 x59 +2 x60 +1 x62 +2 x63 >= 2 ;
+1 x27 +1 x43 +1 x51 +2 x58 +1 x59 +2 x61 +1 x62 >= 2 ;
+1 x30 +1 x46 +1 x54 +1 x59 +2 x60 +1 x62 +2 x63 >= 2 ;
+1 x29 +1 x45 +1 x53 +2 x59 +1 x60 +1 x61 +2 x63 >= 2 ;
+1 x31 +1 x47 +1 x55 +2 x61 +2 x62 +1 x63 +1 x64 >= 2 ;
+1 x26 +1 x42 +1 x50 +1 x57 +1 x58 +2 x59 +2 x60 >= 2 ;
+1 x27 +1 x43 +1 x51 +2 x58 +1 x59 +2 x61 +1 x62 >= 2 ;
+1 x28 +1 x44 +1 x52 +2 x58 +1 x60 +1 x61 +2 x62 >= 2 ;
+1 x29 +1 x45 +1 x53 +2 x59 +1 x60 +1 x61 +2 x63 >= 2 ;
+1 x28 +1 x44 +1 x52 +2 x58 +1 x60 +1 x61 +2 x62 >= 2 ;
+1 x30 +1 x46 +1 x54 +1 x59 +2 x60 +1 x62 +2 x63 >= 2 ;
+1 x30 +1 x46 +1 x54 +1 x59 +2 x60 +1 x62 +2 x63 >= 2 ;
+1 x31 +1 x47 +1 x55 +2 x61 +2 x62 +1 x63 +1 x64 >= 2 ;
+1 x27 +1 x43 +1 x51 +2 x58 +1 x59 +2 x61 +1 x62 >= 2 ;
+1 x29 +1 x45 +1 x53 +2 x59 +1 x60 +1 x61 +2 x63 >= 2 ;
+1 x30 +1 x46 +1 x54 +1 x59 +2 x60 +1 x62 +2 x63 >= 2 ;
+1 x31 +1 x47 +1 x55 +2 x61 +2 x62 +1 x63 +1 x64 >= 2 ;
+1 x29 +1 x45 +1 x53 +2 x59 +1 x60 +1 x61 +2 x63 >= 2 ;
+1 x31 +1 x47 +1 x55 +2 x61 +2 x62 +1 x63 +1 x64 >= 2 ;
+1 x31 +1 x47 +1 x55 +2 x61 +2 x62 +1 x63 +1 x64 >= 2 ;
+1 x32 +1 x48 +1 x56 +5 x63 +1 x64 >= 2 ;
-1 x1 -5 x2 -5 x3 -5 x4 -5 x5 -5 x6 -5 x7 -1 x8 -1 x9 -5 x10 -5 x11 -5 x12 -5 x13 -5 x14 -5 x15 -1 x16 -1 x17 -5 x18 -5 x19 -5 x20 -5 x21 -5 x22 -5 x23 -1 x24 -1 x25 -5 x26 -5 x27 -5 x28 -5 x29 -5 x30 -5 x31 -1 x32 -1 x33 -5 x34 -5 x35 -5 x36 -5 x37 -5 x38 -5 x39 -1 x40 -1 x41 -5 x42 -5 x43 -5 x44 -5 x45 -5 x46 -5 x47 -1 x48 -1 x49 -5 x50 -5 x51 -5 x52 -5 x53 -5 x54 -5 x55 -1 x56 -1 x57 -5 x58 -5 x59 -5 x60 -5 x61 -5 x62 -5 x63 -1 x64 >= -63 ;
