* #variable= 96 #constraint= 257 #equal= 0 intsize= 3
* prime-order-symmetric orbit-ILP for class p3_a2 (order 3, 96 orbits)
* x{i+1} = 1  iff  orbit O_i (0-indexed) is included in the invariant code
* coverage: sum_i cov(v,O_i) y_i >= 2 for every vertex v in F_2^8 (256 rows)
* cardinality: sum_i |O_i| y_i <= 63, in >= form
+1 x1 +3 x2 +3 x5 +1 x25 +1 x49 >= 2 ;
+1 x1 +1 x2 +2 x3 +1 x6 +1 x7 +1 x9 +1 x26 +1 x50 >= 2 ;
+1 x1 +1 x2 +2 x3 +1 x6 +1 x7 +1 x9 +1 x26 +1 x50 >= 2 ;
+2 x2 +1 x3 +1 x4 +1 x8 +1 x10 +1 x11 +1 x27 +1 x51 >= 2 ;
+1 x1 +1 x2 +2 x3 +1 x6 +1 x7 +1 x9 +1 x26 +1 x50 >= 2 ;
+2 x2 +1 x3 +1 x4 +1 x8 +1 x10 +1 x11 +1 x27 +1 x51 >= 2 ;
+2 x2 +1 x3 +1 x4 +1 x8 +1 x10 +1 x11 +1 x27 +1 x51 >= 2 ;
+3 x3 +1 x4 +3 x12 +1 x28 +1 x52 >= 2 ;
+1 x1 +1 x5 +1 x6 +1 x7 +1 x9 +2 x13 +1 x29 +1 x53 >= 2 ;
+1 x2 +1 x5 +1 x6 +1 x8 +1 x10 +1 x14 +1 x15 +1 x30 +1 x54 >= 2 ;
+1 x2 +1 x5 +1 x7 +1 x8 +1 x11 +1 x15 +1 x17 +1 x31 +1 x55 >= 2 ;
+1 x3 +1 x6 +1 x7 +1 x8 +1 x12 +1 x16 +1 x19 +1 x32 +1 x56 >= 2 ;
+1 x2 +1 x5 +1 x9 +1 x10 +1 x11 +1 x14 +1 x17 +1 x33 +1 x57 >= 2 ;
+1 x3 +1 x6 +1 x9 +1 x10 +1 x12 +1 x16 +1 x18 +1 x34 +1 x58 >= 2 ;
+1 x3 +1 x7 +1 x9 +1 x11 +1 x12 +1 x18 +1 x19 +1 x35 +1 x59 >= 2 ;
+1 x4 +1 x8 +1 x10 +1 x11 +1 x12 +2 x20 +1 x36 +1 x60 >= 2 ;
+1 x1 +1 x5 +1 x6 +1 x7 +1 x9 +2 x13 +1 x29 +1 x53 >= 2 ;
+1 x2 +1 x5 +1 x9 +1 x10 +1 x11 +1 x14 +1 x17 +1 x33 +1 x57 >= 2 ;
+1 x2 +1 x5 +1 x6 +1 x8 +1 x10 +1 x14 +1 x15 +1 x30 +1 x54 >= 2 ;
+1 x3 +1 x6 +1 x9 +1 x10 +1 x12 +1 x16 +1 x18 +1 x34 +1 x58 >= 2 ;
+1 x2 +1 x5 +1 x7 +1 x8 +1 x11 +1 x15 +1 x17 +1 x31 +1 x55 >= 2 ;
+1 x3 +1 x7 +1 x9 +1 x11 +1 x12 +1 x18 +1 x19 +1 x35 +1 x59 >= 2 ;
+1 x3 +1 x6 +1 x7 +1 x8 +1 x12 +1 x16 +1 x19 +1 x32 +1 x56 >= 2 ;
+1 x4 +1 x8 +1 x10 +1 x11 +1 x12 +2 x20 +1 x36 +1 x60 >= 2 ;
+2 x5 +1 x13 +1 x14 +1 x15 +1 x17 +1 x21 +1 x37 +1 x61 >= 2 ;
+1 x6 +1 x9 +1 x13 +1 x14 +1 x16 +1 x18 +1 x22 +1 x38 +1 x62 >= 2 ;
+1 x6 +1 x7 +1 x13 +1 x15 +1 x16 +1 x19 +1 x22 +1 x39 +1 x63 >= 2 ;
+1 x8 +1 x10 +1 x14 +1 x15 +1 x16 +1 x20 +1 x23 +1 x40 +1 x64 >= 2 ;
+1 x7 +1 x9 +1 x13 +1 x17 +1 x18 +1 x19 +1 x22 +1 x41 +1 x65 >= 2 ;
+1 x10 +1 x11 +1 x14 +1 x17 +1 x18 +1 x20 +1 x23 +1 x42 +1 x66 >= 2 ;
+1 x8 +1 x11 +1 x15 +1 x17 +1 x19 +1 x20 +1 x23 +1 x43 +1 x67 >= 2 ;
+2 x12 +1 x16 +1 x18 +1 x19 +1 x20 +1 x24 +1 x44 +1 x68 >= 2 ;
+1 x1 +1 x5 +1 x6 +1 x7 +1 x9 +2 x13 +1 x29 +1 x53 >= 2 ;
+1 x2 +1 x5 +1 x7 +1 x8 +1 x11 +1 x15 +1 x17 +1 x31 +1 x55 >= 2 ;
+1 x2 +1 x5 +1 x9 +1 x10 +1 x11 +1 x14 +1 x17 +1 x33 +1 x57 >= 2 ;
+1 x3 +1 x7 +1 x9 +1 x11 +1 x12 +1 x18 +1 x19 +1 x35 +1 x59 >= 2 ;
+1 x2 +1 x5 +1 x6 +1 x8 +1 x10 +1 x14 +1 x15 +1 x30 +1 x54 >= 2 ;
+1 x3 +1 x6 +1 x7 +1 x8 +1 x12 +1 x16 +1 x19 +1 x32 +1 x56 >= 2 ;
+1 x3 +1 x6 +1 x9 +1 x10 +1 x12 +1 x16 +1 x18 +1 x34 +1 x58 >= 2 ;
+1 x4 +1 x8 +1 x10 +1 x11 +1 x12 +2 x20 +1 x36 +1 x60 >= 2 ;
+2 x5 +1 x13 +1 x14 +1 x15 +1 x17 +1 x21 +1 x37 +1 x61 >= 2 ;
+1 x6 +1 x7 +1 x13 +1 x15 +1 x16 +1 x19 +1 x22 +1 x39 +1 x63 >= 2 ;
+1 x7 +1 x9 +1 x13 +1 x17 +1 x18 +1 x19 +1 x22 +1 x41 +1 x65 >= 2 ;
+1 x8 +1 x11 +1 x15 +1 x17 +1 x19 +1 x20 +1 x23 +1 x43 +1 x67 >= 2 ;
+1 x6 +1 x9 +1 x13 +1 x14 +1 x16 +1 x18 +1 x22 +1 x38 +1 x62 >= 2 ;
+1 x8 +1 x10 +1 x14 +1 x15 +1 x16 +1 x20 +1 x23 +1 x40 +1 x64 >= 2 ;
+1 x10 +1 x11 +1 x14 +1 x17 +1 x18 +1 x20 +1 x23 +1 x42 +1 x66 >= 2 ;
+2 x12 +1 x16 +1 x18 +1 x19 +1 x20 +1 x24 +1 x44 +1 x68 >= 2 ;
+2 x5 +1 x13 +1 x14 +1 x15 +1 x17 +1 x21 +1 x37 +1 x61 >= 2 ;
+1 x7 +1 x9 +1 x13 +1 x17 +1 x18 +1 x19 +1 x22 +1 x41 +1 x65 >= 2 ;
+1 x6 +1 x9 +1 x13 +1 x14 +1 x16 +1 x18 +1 x22 +1 x38 +1 x62 >= 2 ;
+1 x10 +1 x11 +1 x14 +1 x17 +1 x18 +1 x20 +1 x23 +1 x42 +1 x66 >= 2 ;
+1 x6 +1 x7 +1 x13 +1 x15 +1 x16 +1 x19 +1 x22 +1 x39 +1 x63 >= 2 ;
+1 x8 +1 x11 +1 x15 +1 x17 +1 x19 +1 x20 +1 x23 +1 x43 +1 x67 >= 2 ;
+1 x8 +1 x10 +1 x14 +1 x15 +1 x16 +1 x20 +1 x23 +1 x40 +1 x64 >= 2 ;
+2 x12 +1 x16 +1 x18 +1 x19 +1 x20 +1 x24 +1 x44 +1 x68 >= 2 ;
+3 x13 +1 x21 +3 x22 +1 x45 +1 x69 >= 2 ;
+1 x14 +1 x15 +1 x17 +1 x21 +1 x22 +2 x23 +1 x46 +1 x70 >= 2 ;
+1 x14 +1 x15 +1 x17 +1 x21 +1 x22 +2 x23 +1 x46 +1 x70 >= 2 ;
+1 x16 +1 x18 +1 x19 +2 x22 +1 x23 +1 x24 +1 x47 +1 x71 >= 2 ;
+1 x14 +1 x15 +1 x17 +1 x21 +1 x22 +2 x23 +1 x46 +1 x70 >= 2 ;
+1 x16 +1 x18 +1 x19 +2 x22 +1 x23 +1 x24 +1 x47 +1 x71 >= 2 ;
+1 x16 +1 x18 +1 x19 +2 x22 +1 x23 +1 x24 +1 x47 +1 x71 >= 2 ;
+3 x20 +3 x23 +1 x24 +1 x48 +1 x72 >= 2 ;
+1 x1 +1 x25 +3 x26 +3 x29 +1 x73 >= 2 ;
+1 x2 +1 x25 +1 x26 +2 x27 +1 x30 +1 x31 +1 x33 +1 x74 >= 2 ;
+1 x2 +1 x25 +1 x26 +2 x27 +1 x30 +1 x31 +1 x33 +1 x74 >= 2 ;
+1 x3 +2 x26 +1 x27 +1 x28 +1 x32 +1 x34 +1 x35 +1 x75 >= 2 ;
+1 x2 +1 x25 +1 x26 +2 x27 +1 x30 +1 x31 +1 x33 +1 x74 >= 2 ;
+1 x3 +2 x26 +1 x27 +1 x28 +1 x32 +1 x34 +1 x35 +1 x75 >= 2 ;
+1 x3 +2 x26 +1 x27 +1 x28 +1 x32 +1 x34 +1 x35 +1 x75 >= 2 ;
+1 x4 +3 x27 +1 x28 +3 x36 +1 x76 >= 2 ;
+1 x5 +1 x25 +1 x29 +1 x30 +1 x31 +1 x33 +2 x37 +1 x77 >= 2 ;
+1 x6 +1 x26 +1 x29 +1 x30 +1 x32 +1 x34 +1 x38 +1 x39 +1 x78 >= 2 ;
+1 x7 +1 x26 +1 x29 +1 x31 +1 x32 +1 x35 +1 x39 +1 x41 +1 x79 >= 2 ;
+1 x8 +1 x27 +1 x30 +1 x31 +1 x32 +1 x36 +1 x40 +1 x43 +1 x80 >= 2 ;
+1 x9 +1 x26 +1 x29 +1 x33 +1 x34 +1 x35 +1 x38 +1 x41 +1 x81 >= 2 ;
+1 x10 +1 x27 +1 x30 +1 x33 +1 x34 +1 x36 +1 x40 +1 x42 +1 x82 >= 2 ;
+1 x11 +1 x27 +1 x31 +1 x33 +1 x35 +1 x36 +1 x42 +1 x43 +1 x83 >= 2 ;
+1 x12 +1 x28 +1 x32 +1 x34 +1 x35 +1 x36 +2 x44 +1 x84 >= 2 ;
+1 x5 +1 x25 +1 x29 +1 x30 +1 x31 +1 x33 +2 x37 +1 x77 >= 2 ;
+1 x9 +1 x26 +1 x29 +1 x33 +1 x34 +1 x35 +1 x38 +1 x41 +1 x81 >= 2 ;
+1 x6 +1 x26 +1 x29 +1 x30 +1 x32 +1 x34 +1 x38 +1 x39 +1 x78 >= 2 ;
+1 x10 +1 x27 +1 x30 +1 x33 +1 x34 +1 x36 +1 x40 +1 x42 +1 x82 >= 2 ;
+1 x7 +1 x26 +1 x29 +1 x31 +1 x32 +1 x35 +1 x39 +1 x41 +1 x79 >= 2 ;
+1 x11 +1 x27 +1 x31 +1 x33 +1 x35 +1 x36 +1 x42 +1 x43 +1 x83 >= 2 ;
+1 x8 +1 x27 +1 x30 +1 x31 +1 x32 +1 x36 +1 x40 +1 x43 +1 x80 >= 2 ;
+1 x12 +1 x28 +1 x32 +1 x34 +1 x35 +1 x36 +2 x44 +1 x84 >= 2 ;
+1 x13 +2 x29 +1 x37 +1 x38 +1 x39 +1 x41 +1 x45 +1 x85 >= 2 ;
+1 x14 +1 x30 +1 x33 +1 x37 +1 x38 +1 x40 +1 x42 +1 x46 +1 x86 >= 2 ;
+1 x15 +1 x30 +1 x31 +1 x37 +1 x39 +1 x40 +1 x43 +1 x46 +1 x87 >= 2 ;
+1 x16 +1 x32 +1 x34 +1 x38 +1 x39 +1 x40 +1 x44 +1 x47 +1 x88 >= 2 ;
+1 x17 +1 x31 +1 x33 +1 x37 +1 x41 +1 x42 +1 x43 +1 x46 +1 x89 >= 2 ;
+1 x18 +1 x34 +1 x35 +1 x38 +1 x41 +1 x42 +1 x44 +1 x47 +1 x90 >= 2 ;
+1 x19 +1 x32 +1 x35 +1 x39 +1 x41 +1 x43 +1 x44 +1 x47 +1 x91 >= 2 ;
+1 x20 +2 x36 +1 x40 +1 x42 +1 x43 +1 x44 +1 x48 +1 x92 >= 2 ;
+1 x5 +1 x25 +1 x29 +1 x30 +1 x31 +1 x33 +2 x37 +1 x77 >= 2 ;
+1 x7 +1 x26 +1 x29 +1 x31 +1 x32 +1 x35 +1 x39 +1 x41 +1 x79 >= 2 ;
+1 x9 +1 x26 +1 x29 +1 x33 +1 x34 +1 x35 +1 x38 +1 x41 +1 x81 >= 2 ;
+1 x11 +1 x27 +1 x31 +1 x33 +1 x35 +1 x36 +1 x42 +1 x43 +1 x83 >= 2 ;
+1 x6 +1 x26 +1 x29 +1 x30 +1 x32 +1 x34 +1 x38 +1 x39 +1 x78 >= 2 ;
+1 x8 +1 x27 +1 x30 +1 x31 +1 x32 +1 x36 +1 x40 +1 x43 +1 x80 >= 2 ;
+1 x10 +1 x27 +1 x30 +1 x33 +1 x34 +1 x36 +1 x40 +1 x42 +1 x82 >= 2 ;
+1 x12 +1 x28 +1 x32 +1 x34 +1 x35 +1 x36 +2 x44 +1 x84 >= 2 ;
+1 x13 +2 x29 +1 x37 +1 x38 +1 x39 +1 x41 +1 x45 +1 x85 >= 2 ;
+1 x15 +1 x30 +1 x31 +1 x37 +1 x39 +1 x40 +1 x43 +1 x46 +1 x87 >= 2 ;
+1 x17 +1 x31 +1 x33 +1 x37 +1 x41 +1 x42 +1 x43 +1 x46 +1 x89 >= 2 ;
+1 x19 +1 x32 +1 x35 +1 x39 +1 x41 +1 x43 +1 x44 +1 x47 +1 x91 >= 2 ;
+1 x14 +1 x30 +1 x33 +1 x37 +1 x38 +1 x40 +1 x42 +1 x46 +1 x86 >= 2 ;
+1 x16 +1 x32 +1 x34 +1 x38 +1 x39 +1 x40 +1 x44 +1 x47 +1 x88 >= 2 ;
+1 x18 +1 x34 +1 x35 +1 x38 +1 x41 +1 x42 +1 x44 +1 x47 +1 x90 >= 2 ;
+1 x20 +2 x36 +1 x40 +1 x42 +1 x43 +1 x44 +1 x48 +1 x92 >= 2 ;
+1 x13 +2 x29 +1 x37 +1 x38 +1 x39 +1 x41 +1 x45 +1 x85 >= 2 ;
+1 x17 +1 x31 +1 x33 +1 x37 +1 x41 +1 x42 +1 x43 +1 x46 +1 x89 >= 2 ;
+1 x14 +1 x30 +1 x33 +1 x37 +1 x38 +1 x40 +1 x42 +1 x46 +1 x86 >= 2 ;
+1 x18 +1 x34 +1 x35 +1 x38 +1 x41 +1 x42 +1 x44 +1 x47 +1 x90 >= 2 ;
+1 x15 +1 x30 +1 x31 +1 x37 +1 x39 +1 x40 +1 x43 +1 x46 +1 x87 >= 2 ;
+1 x19 +1 x32 +1 x35 +1 x39 +1 x41 +1 x43 +1 x44 +1 x47 +1 x91 >= 2 ;
+1 x16 +1 x32 +1 x34 +1 x38 +1 x39 +1 x40 +1 x44 +1 x47 +1 x88 >= 2 ;
+1 x20 +2 x36 +1 x40 +1 x42 +1 x43 +1 x44 +1 x48 +1 x92 >= 2 ;
+1 x21 +3 x37 +1 x45 +3 x46 +1 x93 >= 2 ;
+1 x22 +1 x38 +1 x39 +1 x41 +1 x45 +1 x46 +2 x47 +1 x94 >= 2 ;
+1 x22 +1 x38 +1 x39 +1 x41 +1 x45 +1 x46 +2 x47 +1 x94 >= 2 ;
+1 x23 +1 x40 +1 x42 +1 x43 +2 x46 +1 x47 +1 x48 +1 x95 >= 2 ;
+1 x22 +1 x38 +1 x39 +1 x41 +1 x45 +1 x46 +2 x47 +1 x94 >= 2 ;
+1 x23 +1 x40 +1 x42 +1 x43 +2 x46 +1 x47 +1 x48 +1 x95 >= 2 ;
+1 x23 +1 x40 +1 x42 +1 x43 +2 x46 +1 x47 +1 x48 +1 x95 >= 2 ;
+1 x24 +3 x44 +3 x47 +1 x48 +1 x96 >= 2 ;
+1 x1 +1 x49 +3 x50 +3 x53 +1 x73 >= 2 ;
+1 x2 +1 x49 +1 x50 +2 x51 +1 x54 +1 x55 +1 x57 +1 x74 >= 2 ;
+1 x2 +1 x49 +1 x50 +2 x51 +1 x54 +1 x55 +1 x57 +1 x74 >= 2 ;
+1 x3 +2 x50 +1 x51 +1 x52 +1 x56 +1 x58 +1 x59 +1 x75 >= 2 ;
+1 x2 +1 x49 +1 x50 +2 x51 +1 x54 +1 x55 +1 x57 +1 x74 >= 2 ;
+1 x3 +2 x50 +1 x51 +1 x52 +1 x56 +1 x58 +1 x59 +1 x75 >= 2 ;
+1 x3 +2 x50 +1 x51 +1 x52 +1 x56 +1 x58 +1 x59 +1 x75 >= 2 ;
+1 x4 +3 x51 +1 x52 +3 x60 +1 x76 >= 2 ;
+1 x5 +1 x49 +1 x53 +1 x54 +1 x55 +1 x57 +2 x61 +1 x77 >= 2 ;
+1 x6 +1 x50 +1 x53 +1 x54 +1 x56 +1 x58 +1 x62 +1 x63 +1 x78 >= 2 ;
+1 x7 +1 x50 +1 x53 +1 x55 +1 x56 +1 x59 +1 x63 +1 x65 +1 x79 >= 2 ;
+1 x8 +1 x51 +1 x54 +1 x55 +1 x56 +1 x60 +1 x64 +1 x67 +1 x80 >= 2 ;
+1 x9 +1 x50 +1 x53 +1 x57 +1 x58 +1 x59 +1 x62 +1 x65 +1 x81 >= 2 ;
+1 x10 +1 x51 +1 x54 +1 x57 +1 x58 +1 x60 +1 x64 +1 x66 +1 x82 >= 2 ;
+1 x11 +1 x51 +1 x55 +1 x57 +1 x59 +1 x60 +1 x66 +1 x67 +1 x83 >= 2 ;
+1 x12 +1 x52 +1 x56 +1 x58 +1 x59 +1 x60 +2 x68 +1 x84 >= 2 ;
+1 x5 +1 x49 +1 x53 +1 x54 +1 x55 +1 x57 +2 x61 +1 x77 >= 2 ;
+1 x9 +1 x50 +1 x53 +1 x57 +1 x58 +1 x59 +1 x62 +1 x65 +1 x81 >= 2 ;
+1 x6 +1 x50 +1 x53 +1 x54 +1 x56 +1 x58 +1 x62 +1 x63 +1 x78 >= 2 ;
+1 x10 +1 x51 +1 x54 +1 x57 +1 x58 +1 x60 +1 x64 +1 x66 +1 x82 >= 2 ;
+1 x7 +1 x50 +1 x53 +1 x55 +1 x56 +1 x59 +1 x63 +1 x65 +1 x79 >= 2 ;
+1 x11 +1 x51 +1 x55 +1 x57 +1 x59 +1 x60 +1 x66 +1 x67 +1 x83 >= 2 ;
+1 x8 +1 x51 +1 x54 +1 x55 +1 x56 +1 x60 +1 x64 +1 x67 +1 x80 >= 2 ;
+1 x12 +1 x52 +1 x56 +1 x58 +1 x59 +1 x60 +2 x68 +1 x84 >= 2 ;
+1 x13 +2 x53 +1 x61 +1 x62 +1 x63 +1 x65 +1 x69 +1 x85 >= 2 ;
+1 x14 +1 x54 +1 x57 +1 x61 +1 x62 +1 x64 +1 x66 +1 x70 +1 x86 >= 2 ;
+1 x15 +1 x54 +1 x55 +1 x61 +1 x63 +1 x64 +1 x67 +1 x70 +1 x87 >= 2 ;
+1 x16 +1 x56 +1 x58 +1 x62 +1 x63 +1 x64 +1 x68 +1 x71 +1 x88 >= 2 ;
+1 x17 +1 x55 +1 x57 +1 x61 +1 x65 +1 x66 +1 x67 +1 x70 +1 x89 >= 2 ;
+1 x18 +1 x58 +1 x59 +1 x62 +1 x65 +1 x66 +1 x68 +1 x71 +1 x90 >= 2 ;
+1 x19 +1 x56 +1 x59 +1 x63 +1 x65 +1 x67 +1 x68 +1 x71 +1 x91 >= 2 ;
+1 x20 +2 x60 +1 x64 +1 x66 +1 x67 +1 x68 +1 x72 +1 x92 >= 2 ;
+1 x5 +1 x49 +1 x53 +1 x54 +1 x55 +1 x57 +2 x61 +1 x77 >= 2 ;
+1 x7 +1 x50 +1 x53 +1 x55 +1 x56 +1 x59 +1 x63 +1 x65 +1 x79 >= 2 ;
+1 x9 +1 x50 +1 x53 +1 x57 +1 x58 +1 x59 +1 x62 +1 x65 +1 x81 >= 2 ;
+1 x11 +1 x51 +1 x55 +1 x57 +1 x59 +1 x60 +1 x66 +1 x67 +1 x83 >= 2 ;
+1 x6 +1 x50 +1 x53 +1 x54 +1 x56 +1 x58 +1 x62 +1 x63 +1 x78 >= 2 ;
+1 x8 +1 x51 +1 x54 +1 x55 +1 x56 +1 x60 +1 x64 +1 x67 +1 x80 >= 2 ;
+1 x10 +1 x51 +1 x54 +1 x57 +1 x58 +1 x60 +1 x64 +1 x66 +1 x82 >= 2 ;
+1 x12 +1 x52 +1 x56 +1 x58 +1 x59 +1 x60 +2 x68 +1 x84 >= 2 ;
+1 x13 +2 x53 +1 x61 +1 x62 +1 x63 +1 x65 +1 x69 +1 x85 >= 2 ;
+1 x15 +1 x54 +1 x55 +1 x61 +1 x63 +1 x64 +1 x67 +1 x70 +1 x87 >= 2 ;
+1 x17 +1 x55 +1 x57 +1 x61 +1 x65 +1 x66 +1 x67 +1 x70 +1 x89 >= 2 ;
+1 x19 +1 x56 +1 x59 +1 x63 +1 x65 +1 x67 +1 x68 +1 x71 +1 x91 >= 2 ;
+1 x14 +1 x54 +1 x57 +1 x61 +1 x62 +1 x64 +1 x66 +1 x70 +1 x86 >= 2 ;
+1 x16 +1 x56 +1 x58 +1 x62 +1 x63 +1 x64 +1 x68 +1 x71 +1 x88 >= 2 ;
+1 x18 +1 x58 +1 x59 +1 x62 +1 x65 +1 x66 +1 x68 +1 x71 +1 x90 >= 2 ;
+1 x20 +2 x60 +1 x64 +1 x66 +1 x67 +1 x68 +1 x72 +1 x92 >= 2 ;
+1 x13 +2 x53 +1 x61 +1 x62 +1 x63 +1 x65 +1 x69 +1 x85 >= 2 ;
+1 x17 +1 x55 +1 x57 +1 x61 +1 x65 +1 x66 +1 x67 +1 x70 +1 x89 >= 2 ;
+1 x14 +1 x54 +1 x57 +1 x61 +1 x62 +1 x64 +1 x66 +1 x70 +1 x86 >= 2 ;
+1 x18 +1 x58 +1 x59 +1 x62 +1 x65 +1 x66 +1 x68 +1 x71 +1 x90 >= 2 ;
+1 x15 +1 x54 +1 x55 +1 x61 +1 x63 +1 x64 +1 x67 +1 x70 +1 x87 >= 2 ;
+1 x19 +1 x56 +1 x59 +1 x63 +1 x65 +1 x67 +1 x68 +1 x71 +1 x91 >= 2 ;
+1 x16 +1 x56 +1 x58 +1 x62 +1 x63 +1 x64 +1 x68 +1 x71 +1 x88 >= 2 ;
+1 x20 +2 x60 +1 x64 +1 x66 +1 x67 +1 x68 +1 x72 +1 x92 >= 2 ;
+1 x21 +3 x61 +1 x69 +3 x70 +1 x93 >= 2 ;
+1 x22 +1 x62 +1 x63 +1 x65 +1 x69 +1 x70 +2 x71 +1 x94 >= 2 ;
+1 x22 +1 x62 +1 x63 +1 x65 +1 x69 +1 x70 +2 x71 +1 x94 >= 2 ;
+1 x23 +1 x64 +1 x66 +1 x67 +2 x70 +1 x71 +1 x72 +1 x95 >= 2 ;
+1 x22 +1 x62 +1 x63 +1 x65 +1 x69 +1 x70 +2 x71 +1 x94 >= 2 ;
+1 x23 +1 x64 +1 x66 +1 x67 +2 x70 +1 x71 +1 x72 +1 x95 >= 2 ;
+1 x23 +1 x64 +1 x66 +1 x67 +2 x70 +1 x71 +1 x72 +1 x95 >= 2 ;
+1 x24 +3 x68 +3 x71 +1 x72 +1 x96 >= 2 ;
+1 x25 +1 x49 +1 x73 +3 x74 +3 x77 >= 2 ;
+1 x26 +1 x50 +1 x73 +1 x74 +2 x75 +1 x78 +1 x79 +1 x81 >= 2 ;
+1 x26 +1 x50 +1 x73 +1 x74 +2 x75 +1 x78 +1 x79 +1 x81 >= 2 ;
+1 x27 +1 x51 +2 x74 +1 x75 +1 x76 +1 x80 +1 x82 +1 x83 >= 2 ;
+1 x26 +1 x50 +1 x73 +1 x74 +2 x75 +1 x78 +1 x79 +1 x81 >= 2 ;
+1 x27 +1 x51 +2 x74 +1 x75 +1 x76 +1 x80 +1 x82 +1 x83 >= 2 ;
+1 x27 +1 x51 +2 x74 +1 x75 +1 x76 +1 x80 +1 x82 +1 x83 >= 2 ;
+1 x28 +1 x52 +3 x75 +1 x76 +3 x84 >= 2 ;
+1 x29 +1 x53 +1 x73 +1 x77 +1 x78 +1 x79 +1 x81 +2 x85 >= 2 ;
+1 x30 +1 x54 +1 x74 +1 x77 +1 x78 +1 x80 +1 x82 +1 x86 +1 x87 >= 2 ;
+1 x31 +1 x55 +1 x74 +1 x77 +1 x79 +1 x80 +1 x83 +1 x87 +1 x89 >= 2 ;
+1 x32 +1 x56 +1 x75 +1 x78 +1 x79 +1 x80 +1 x84 +1 x88 +1 x91 >= 2 ;
+1 x33 +1 x57 +1 x74 +1 x77 +1 x81 +1 x82 +1 x83 +1 x86 +1 x89 >= 2 ;
+1 x34 +1 x58 +1 x75 +1 x78 +1 x81 +1 x82 +1 x84 +1 x88 +1 x90 >= 2 ;
+1 x35 +1 x59 +1 x75 +1 x79 +1 x81 +1 x83 +1 x84 +1 x90 +1 x91 >= 2 ;
+1 x36 +1 x60 +1 x76 +1 x80 +1 x82 +1 x83 +1 x84 +2 x92 >= 2 ;
+1 x29 +1 x53 +1 x73 +1 x77 +1 x78 +1 x79 +1 x81 +2 x85 >= 2 ;
+1 x33 +1 x57 +1 x74 +1 x77 +1 x81 +1 x82 +1 x83 +1 x86 +1 x89 >= 2 ;
+1 x30 +1 x54 +1 x74 +1 x77 +1 x78 +1 x80 +1 x82 +1 x86 +1 x87 >= 2 ;
+1 x34 +1 x58 +1 x75 +1 x78 +1 x81 +1 x82 +1 x84 +1 x88 +1 x90 >= 2 ;
+1 x31 +1 x55 +1 x74 +1 x77 +1 x79 +1 x80 +1 x83 +1 x87 +1 x89 >= 2 ;
+1 x35 +1 x59 +1 x75 +1 x79 +1 x81 +1 x83 +1 x84 +1 x90 +1 x91 >= 2 ;
+1 x32 +1 x56 +1 x75 +1 x78 +1 x79 +1 x80 +1 x84 +1 x88 +1 x91 >= 2 ;
+1 x36 +1 x60 +1 x76 +1 x80 +1 x82 +1 x83 +1 x84 +2 x92 >= 2 ;
+1 x37 +1 x61 +2 x77 +1 x85 +1 x86 +1 x87 +1 x89 +1 x93 >= 2 ;
+1 x38 +1 x62 +1 x78 +1 x81 +1 x85 +1 x86 +1 x88 +1 x90 +1 x94 >= 2 ;
+1 x39 +1 x63 +1 x78 +1 x79 +1 x85 +1 x87 +1 x88 +1 x91 +1 x94 >= 2 ;
+1 x40 +1 x64 +1 x80 +1 x82 +1 x86 +1 x87 +1 x88 +1 x92 +1 x95 >= 2 ;
+1 x41 +1 x65 +1 x79 +1 x81 +1 x85 +1 x89 +1 x90 +1 x91 +1 x94 >= 2 ;
+1 x42 +1 x66 +1 x82 +1 x83 +1 x86 +1 x89 +1 x90 +1 x92 +1 x95 >= 2 ;
+1 x43 +1 x67 +1 x80 +1 x83 +1 x87 +1 x89 +1 x91 +1 x92 +1 x95 >= 2 ;
+1 x44 +1 x68 +2 x84 +1 x88 +1 x90 +1 x91 +1 x92 +1 x96 >= 2 ;
+1 x29 +1 x53 +1 x73 +1 x77 +1 x78 +1 x79 +1 x81 +2 x85 >= 2 ;
+1 x31 +1 x55 +1 x74 +1 x77 +1 x79 +1 x80 +1 x83 +1 x87 +1 x89 >= 2 ;
+1 x33 +1 x57 +1 x74 +1 x77 +1 x81 +1 x82 +1 x83 +1 x86 +1 x89 >= 2 ;
+1 x35 +1 x59 +1 x75 +1 x79 +1 x81 +1 x83 +1 x84 +1 x90 +1 x91 >= 2 ;
+1 x30 +1 x54 +1 x74 +1 x77 +1 x78 +1 x80 +1 x82 +1 x86 +1 x87 >= 2 ;
+1 x32 +1 x56 +1 x75 +1 x78 +1 x79 +1 x80 +1 x84 +1 x88 +1 x91 >= 2 ;
+1 x34 +1 x58 +1 x75 +1 x78 +1 x81 +1 x82 +1 x84 +1 x88 +1 x90 >= 2 ;
+1 x36 +1 x60 +1 x76 +1 x80 +1 x82 +1 x83 +1 x84 +2 x92 >= 2 ;
+1 x37 +1 x61 +2 x77 +1 x85 +1 x86 +1 x87 +1 x89 +1 x93 >= 2 ;
+1 x39 +1 x63 +1 x78 +1 x79 +1 x85 +1 x87 +1 x88 +1 x91 +1 x94 >= 2 ;
+1 x41 +1 x65 +1 x79 +1 x81 +1 x85 +1 x89 +1 x90 +1 x91 +1 x94 >= 2 ;
+1 x43 +1 x67 +1 x80 +1 x83 +1 x87 +1 x89 +1 x91 +1 x92 +1 x95 >= 2 ;
+1 x38 +1 x62 +1 x78 +1 x81 +1 x85 +1 x86 +1 x88 +1 x90 +1 x94 >= 2 ;
+1 x40 +1 x64 +1 x80 +1 x82 +1 x86 +1 x87 +1 x88 +1 x92 +1 x95 >= 2 ;
+1 x42 +1 x66 +1 x82 +1 x83 +1 x86 +1 x89 +1 x90 +1 x92 +1 x95 >= 2 ;
+1 x44 +1 x68 +2 x84 +1 x88 +1 x90 +1 x91 +1 x92 +1 x96 >= 2 ;
+1 x37 +1 x61 +2 x77 +1 x85 +1 x86 +1 x87 +1 x89 +1 x93 >= 2 ;
+1 x41 +1 x65 +1 x79 +1 x81 +1 x85 +1 x89 +1 x90 +1 x91 +1 x94 >= 2 ;
+1 x38 +1 x62 +1 x78 +1 x81 +1 x85 +1 x86 +1 x88 +1 x90 +1 x94 >= 2 ;
+1 x42 +1 x66 +1 x82 +1 x83 +1 x86 +1 x89 +1 x90 +1 x92 +1 x95 >= 2 ;
+1 x39 +1 x63 +1 x78 +1 x79 +1 x85 +1 x87 +1 x88 +1 x91 +1 x94 >= 2 ;
+1 x43 +1 x67 +1 x80 +1 x83 +1 x87 +1 x89 +1 x91 +1 x92 +1 x95 >= 2 ;
+1 x40 +1 x64 +1 x80 +1 x82 +1 x86 +1 x87 +1 x88 +1 x92 +1 x95 >= 2 ;
+1 x44 +1 x68 +2 x84 +1 x88 +1 x90 +1 x91 +1 x92 +1 x96 >= 2 ;
+1 x45 +1 x69 +3 x85 +1 x93 +3 x94 >= 2 ;
+1 x46 +1 x70 +1 x86 +1 x87 +1 x89 +1 x93 +1 x94 +2 x95 >= 2 ;
+1 x46 +1 x70 +1 x86 +1 x87 +1 x89 +1 x93 +1 x94 +2 x95 >= 2 ;
+1 x47 +1 x71 +1 x88 +1 x90 +1 x91 +2 x94 +1 x95 +1 x96 >= 2 ;
+1 x46 +1 x70 +1 x86 +1 x87 +1 x89 +1 x93 +1 x94 +2 x95 >= 2 ;
+1 x47 +1 x71 +1 x88 +1 x90 +1 x91 +2 x94 +1 x95 +1 x96 >= 2 ;
+1 x47 +1 x71 +1 x88 +1 x90 +1 x91 +2 x94 +1 x95 +1 x96 >= 2 ;
+1 x48 +1 x72 +3 x92 +3 x95 +1 x96 >= 2 ;
-1 x1 -3 x2 -3 x3 -1 x4 -3 x5 -3 x6 -3 x7 -3 x8 -3 x9 -3 x10 -3 x11 -3 x12 -3 x13 -3 x14 -3 x15 -3 x16 -3 x17 -3 x18 -3 x19 -3 x20 -1 x21 -3 x22 -3 x23 -1 x24 -1 x25 -3 x26 -3 x27 -1 x28 -3 x29 -3 x30 -3 x31 -3 x32 -3 x33 -3 x34 -3 x35 -3 x36 -3 x37 -3 x38 -3 x39 -3 x40 -3 x41 -3 x42 -3 x43 -3 x44 -1 x45 -3 x46 -3 x47 -1 x48 -1 x49 -3 x50 -3 x51 -1 x52 -3 x53 -3 x54 -3 x55 -3 x56 -3 x57 -3 x58 -3 x59 -3 x60 -3 x61 -3 x62 -3 x63 -3 x64 -3 x65 -3 x66 -3 x67 -3 x68 -1 x69 -3 x70 -3 x71 -1 x72 -1 x73 -3 x74 -3 x75 -1 x76 -3 x77 -3 x78 -3 x79 -3 x80 -3 x81 -3 x82 -3 x83 -3 x84 -3 x85 -3 x86 -3 x87 -3 x88 -3 x89 -3 x90 -3 x91 -3 x92 -1 x93 -3 x94 -3 x95 -1 x96 >= -63 ;
